\ LP format - for model browsing. Use MPS format to capture full model detail.
\ Signature: 0x175dd85572408a71
Maximize
  0 cdf_d1_0 + 0 cdf_d2_0 + 0 cdf_d1_1 + 0 cdf_d2_1 + 0 cdf_d1_2
   + 0 cdf_d2_2 + 0 cdf_d1_3 + 0 cdf_d2_3 + 0 cdf_d1_4 + 0 cdf_d2_4
   + 0 cdf_d1_5 + 0 cdf_d2_5 + 0 cdf_d1_6 + 0 cdf_d2_6 + 0 cdf_d1_7
   + 0 cdf_d2_7 + 0 cdf_d1_8 + 0 cdf_d2_8 + 0 cdf_d1_9 + 0 cdf_d2_9
   + 0 cdf_d1_10 + 0 cdf_d2_10 + 0 var_0 + 0 var_1 + 0 var_2 + 0 var_3
   + 0 var_4 + 0 var_5 + 0 var_6 + 0 var_7 + 0 var_8 + 0 var_9 + 0 var_10
   + C165
Subject To
 R0: 4.705882352941176 Delta[0] + d1_0 = 1.281128257831769
 R1: - d1_0 + d2_0 = -0.1691833073107883
 R2: 4.705882352941176 Delta[1] + d1_1 = 1.989691736877109
 R3: - d1_1 + d2_1 = -0.1059277157545972
 R4: 4.705882352941177 Delta[2] + d1_2 = 1.504115038783729
 R5: - d1_2 + d2_2 = -0.0775353112514782
 R6: 4.705882352941178 Delta[3] + d1_3 = 1.6200891353297
 R7: - d1_3 + d2_3 = -0.0694596572601662
 R8: 4.705882352941177 Delta[4] + d1_4 = 2.58587601947512
 R9: - d1_4 + d2_4 = -0.0406777070484938
 R10: 4.705882352941177 Delta[5] + d1_5 = 2.469758858140169
 R11: - d1_5 + d2_5 = -0.0770514920561559
 R12: 4.705882352941178 Delta[6] + d1_6 = 2.092680169514944
 R13: - d1_6 + d2_6 = -0.0575445935985068
 R14: 4.705882352941177 Delta[7] + d1_7 = 1.73430510376412
 R15: - d1_7 + d2_7 = -0.0529664223669354
 R16: 4.705882352941177 Delta[8] + d1_8 = 2.210632560973856
 R17: - d1_8 + d2_8 = -0.0421938313036365
 R18: 4.705882352941176 Delta[9] + d1_9 = 0.8912092328755147
 R19: - d1_9 + d2_9 = -0.0552550900414609
 R20: 4.705882352941176 Delta[10] + d1_10 = 2.948487222432306
 R21: - d1_10 + d2_10 = -0.1171908312965835
 R22: weight[0] + weight[1] + weight[2] + weight[3] + weight[4] + weight[5]
   + weight[6] + weight[7] + weight[8] + weight[9] + weight[10] = 1
 qc0: 69.44120942822292 Delta[0] + put_price[0] + [
   - 309.6888063599844 Delta[0] ^2 ] = 11.66179451623903
 qc1: expectation[0] + 0.0244070930528042 Delta[0] + [
   - 0.4224854631958355 Delta[0] ^2 ] = 0.2402833383136002
 qc2: 146.3338279364087 Delta[1] + put_price[1] + [
   - 268.239254063546 Delta[1] ^2 ] = 26.93993827623187
 qc3: expectation[1] + 0.0152815762759863 Delta[1] + [
   - 0.2645232604044503 Delta[1] ^2 ] = 0.0731846444736162
 qc4: 93.96405059068763 Delta[2] + put_price[2] + [
   - 269.8424692868816 Delta[2] ^2 ] = 15.31636480088806
 qc5: expectation[2] + 0.0111855689942071 Delta[2] + [
   - 0.1936215954682735 Delta[2] ^2 ] = 0.0909395330312666
 qc6: 104.1311272011662 Delta[3] + put_price[3] + [
   - 260.273956889941 Delta[3] ^2 ] = 17.32914103790237
 qc7: expectation[3] + 0.0100205412999197 Delta[3] + [
   - 0.1734550289708991 Delta[3] ^2 ] = 0.0734513337344493
 qc8: 38.20285390936618 Delta[4] + put_price[4] + [
   - 46.60438215335482 Delta[4] ^2 ] = 9.086297545174077
 qc9: expectation[4] + 0.00586833652142459 Delta[4] + [
   - 0.1015805884002334 Delta[4] ^2 ] = 0.00441527681100512
 qc10: 162.1527196775248 Delta[5] + put_price[5] + [
   - 213.7043986745787 Delta[5] ^2 ] = 36.41242106580471
 qc11: expectation[5] + 0.011115771209138 Delta[5] + [
   - 0.1924133995765635 Delta[5] ^2 ] = 0.0159682797589769
 qc12: 302.5299997349061 Delta[6] + put_price[6] + [
   - 500.2688144523497 Delta[6] ^2 ] = 59.11294142624928
 qc13: expectation[6] + 0.00830162427351364 Delta[6] + [
   - 0.1437006680347062 Delta[6] ^2 ] = 0.0338399505262735
 qc14: 31.48394964688887 Delta[7] + put_price[7] + [
   - 69.3652832575042 Delta[7] ^2 ] = 5.431681594233801
 qc15: expectation[7] + 0.00764115810201736 Delta[7] + [
   - 0.1322680342595124 Delta[7] ^2 ] = 0.0502523802085009
 qc16: 19.42616287357882 Delta[8] + put_price[8] + [
   - 29.44410736213139 Delta[8] ^2 ] = 3.997894482562561
 qc17: expectation[8] + 0.00608705896138083 Delta[8] + [
   - 0.1053666620287609 Delta[8] ^2 ] = 0.0203304345544153
 qc18: 23.73599232555569 Delta[9] + put_price[9] + [
   - 250.2734617810079 Delta[9] ^2 ] = 7.262430641667947
 qc19: expectation[9] + 0.00797133089380747 Delta[9] + [
   - 0.1379833074619508 Delta[9] ^2 ] = 0.0989397730861
 qc20: 11.9263551261862 Delta[10] + put_price[10] + [
   - 12.5615714233061 Delta[10] ^2 ] = 3.155709302002751
 qc21: expectation[10] + 0.0169064405339758 Delta[10] + [
   - 0.2926495729965253 Delta[10] ^2 ] = -0.0310620501473412
 phi_def_0: - 1.104338492460713 Delta[0] + phi_0 + [
   1.104338492460713 Delta[0] ^2 ] = 0.1228576572862543
 covar_def_0_1: 0.0385969320641579 Delta[0] + 0.0385969320641579 Delta[1]
   + covar_0_1 + [ - 0.0385969320641579 Delta[0] * Delta[1] ]
   = 0.0385969320641579
 covar_def_0_2: 0.0192523782252047 Delta[0] + 0.0192523782252047 Delta[2]
   + covar_0_2 + [ - 0.0192523782252047 Delta[0] * Delta[2] ]
   = 0.0192523782252047
 covar_def_0_3: 0.0126301616009153 Delta[0] + 0.0126301616009153 Delta[3]
   + covar_0_3 + [ - 0.0126301616009153 Delta[0] * Delta[3] ]
   = 0.0126301616009153
 covar_def_0_4: 0.00226126173566027 Delta[0] + 0.00226126173566027 Delta[4]
   + covar_0_4 + [ - 0.00226126173566027 Delta[0] * Delta[4] ]
   = 0.00226126173566027
 covar_def_0_5: 0.0182975731936026 Delta[0] + 0.0182975731936026 Delta[5]
   + covar_0_5 + [ - 0.0182975731936026 Delta[0] * Delta[5] ]
   = 0.0182975731936026
 covar_def_0_6: 0.00500693764179681 Delta[0] + 0.00500693764179681 Delta[6]
   + covar_0_6 + [ - 0.00500693764179681 Delta[0] * Delta[6] ]
   = 0.00500693764179681
 covar_def_0_7: 0.00666441083166486 Delta[0] + 0.00666441083166486 Delta[7]
   + covar_0_7 + [ - 0.00666441083166486 Delta[0] * Delta[7] ]
   = 0.00666441083166486
 covar_def_0_8: 0.00190016273182081 Delta[0] + 0.00190016273182081 Delta[8]
   + covar_0_8 + [ - 0.00190016273182081 Delta[0] * Delta[8] ]
   = 0.00190016273182081
 covar_def_0_9: 0.00382300516372534 Delta[0] + 0.00382300516372534 Delta[9]
   + covar_0_9 + [ - 0.00382300516372534 Delta[0] * Delta[9] ]
   = 0.00382300516372534
 covar_def_0_10: 0.0254375911248654 Delta[0] + 0.0254375911248654 Delta[10]
   + covar_0_10 + [ - 0.0254375911248654 Delta[0] * Delta[10] ]
   = 0.0254375911248654
 phi_def_1: - 1.104338492460713 Delta[1] + phi_1 + [
   1.104338492460713 Delta[1] ^2 ] = 0.1228576572862543
 covar_def_1_2: 0.0134566790241447 Delta[1] + 0.0134566790241447 Delta[2]
   + covar_1_2 + [ - 0.0134566790241447 Delta[1] * Delta[2] ]
   = 0.0134566790241447
 covar_def_1_3: 0.011788453024843 Delta[1] + 0.011788453024843 Delta[3]
   + covar_1_3 + [ - 0.011788453024843 Delta[1] * Delta[3] ]
   = 0.011788453024843
 covar_def_1_4: 0.00201165680511175 Delta[1] + 0.00201165680511175 Delta[4]
   + covar_1_4 + [ - 0.00201165680511175 Delta[1] * Delta[4] ]
   = 0.00201165680511175
 covar_def_1_5: 0.00929018559119715 Delta[1] + 0.00929018559119715 Delta[5]
   + covar_1_5 + [ - 0.00929018559119715 Delta[1] * Delta[5] ]
   = 0.00929018559119715
 covar_def_1_6: - 0.00196571867191839 Delta[1]
   - 0.00196571867191839 Delta[6] + covar_1_6 + [
   0.00196571867191839 Delta[1] * Delta[6] ] = -0.00196571867191839
 covar_def_1_7: 0.00275180847926893 Delta[1] + 0.00275180847926893 Delta[7]
   + covar_1_7 + [ - 0.00275180847926893 Delta[1] * Delta[7] ]
   = 0.00275180847926893
 covar_def_1_8: - 1.31365e-05 Delta[1] - 1.31365e-05 Delta[8] + covar_1_8
   + [ 1.31365e-05 Delta[1] * Delta[8] ] = -1.31365e-05
 covar_def_1_9: - 9.8772624430155378e-04 Delta[1]
   - 9.8772624430155378e-04 Delta[9] + covar_1_9 + [
   9.8772624430155378e-04 Delta[1] * Delta[9] ] = -9.8772624430155378e-04
 covar_def_1_10: 0.0140090200598326 Delta[1] + 0.0140090200598326 Delta[10]
   + covar_1_10 + [ - 0.0140090200598326 Delta[1] * Delta[10] ]
   = 0.0140090200598326
 phi_def_2: - 1.104338492460713 Delta[2] + phi_2 + [
   1.104338492460713 Delta[2] ^2 ] = 0.1228576572862543
 covar_def_2_3: 0.00428046119359338 Delta[2] + 0.00428046119359338 Delta[3]
   + covar_2_3 + [ - 0.00428046119359338 Delta[2] * Delta[3] ]
   = 0.00428046119359338
 covar_def_2_4: 0.00125930712519308 Delta[2] + 0.00125930712519308 Delta[4]
   + covar_2_4 + [ - 0.00125930712519308 Delta[2] * Delta[4] ]
   = 0.00125930712519308
 covar_def_2_5: 0.005656199120122 Delta[2] + 0.005656199120122 Delta[5]
   + covar_2_5 + [ - 0.005656199120122 Delta[2] * Delta[5] ]
   = 0.005656199120122
 covar_def_2_6: 0.00160979597546325 Delta[2] + 0.00160979597546325 Delta[6]
   + covar_2_6 + [ - 0.00160979597546325 Delta[2] * Delta[6] ]
   = 0.00160979597546325
 covar_def_2_7: 0.00246406136454002 Delta[2] + 0.00246406136454002 Delta[7]
   + covar_2_7 + [ - 0.00246406136454002 Delta[2] * Delta[7] ]
   = 0.00246406136454002
 covar_def_2_8: 0.00235635416240347 Delta[2] + 0.00235635416240347 Delta[8]
   + covar_2_8 + [ - 0.00235635416240347 Delta[2] * Delta[8] ]
   = 0.00235635416240347
 covar_def_2_9: 0.00181688875929677 Delta[2] + 0.00181688875929677 Delta[9]
   + covar_2_9 + [ - 0.00181688875929677 Delta[2] * Delta[9] ]
   = 0.00181688875929677
 covar_def_2_10: 0.00996901020752096 Delta[2]
   + 0.00996901020752096 Delta[10] + covar_2_10 + [
   - 0.00996901020752096 Delta[2] * Delta[10] ] = 0.00996901020752096
 phi_def_3: - 1.104338492460713 Delta[3] + phi_3 + [
   1.104338492460713 Delta[3] ^2 ] = 0.1228576572862543
 covar_def_3_4: 0.00210050381848439 Delta[3] + 0.00210050381848439 Delta[4]
   + covar_3_4 + [ - 0.00210050381848439 Delta[3] * Delta[4] ]
   = 0.00210050381848439
 covar_def_3_5: 0.00891021888559583 Delta[3] + 0.00891021888559583 Delta[5]
   + covar_3_5 + [ - 0.00891021888559583 Delta[3] * Delta[5] ]
   = 0.00891021888559583
 covar_def_3_6: 0.00224877346717556 Delta[3] + 0.00224877346717556 Delta[6]
   + covar_3_6 + [ - 0.00224877346717556 Delta[3] * Delta[6] ]
   = 0.00224877346717556
 covar_def_3_7: 0.00494907156180851 Delta[3] + 0.00494907156180851 Delta[7]
   + covar_3_7 + [ - 0.00494907156180851 Delta[3] * Delta[7] ]
   = 0.00494907156180851
 covar_def_3_8: 0.00344032823738475 Delta[3] + 0.00344032823738475 Delta[8]
   + covar_3_8 + [ - 0.00344032823738475 Delta[3] * Delta[8] ]
   = 0.00344032823738475
 covar_def_3_9: 0.00408684790255054 Delta[3] + 0.00408684790255054 Delta[9]
   + covar_3_9 + [ - 0.00408684790255054 Delta[3] * Delta[9] ]
   = 0.00408684790255054
 covar_def_3_10: 0.0130125395639161 Delta[3] + 0.0130125395639161 Delta[10]
   + covar_3_10 + [ - 0.0130125395639161 Delta[3] * Delta[10] ]
   = 0.0130125395639161
 phi_def_4: - 1.104338492460713 Delta[4] + phi_4 + [
   1.104338492460713 Delta[4] ^2 ] = 0.1228576572862543
 covar_def_4_5: 0.00250840433804632 Delta[4] + 0.00250840433804632 Delta[5]
   + covar_4_5 + [ - 0.00250840433804632 Delta[4] * Delta[5] ]
   = 0.00250840433804632
 covar_def_4_6: 0.00128783149155548 Delta[4] + 0.00128783149155548 Delta[6]
   + covar_4_6 + [ - 0.00128783149155548 Delta[4] * Delta[6] ]
   = 0.00128783149155548
 covar_def_4_7: 9.9623639503060388e-04 Delta[4]
   + 9.9623639503060388e-04 Delta[7] + covar_4_7 + [
   - 9.9623639503060388e-04 Delta[4] * Delta[7] ] = 9.9623639503060388e-04
 covar_def_4_8: 0.00231181251132508 Delta[4] + 0.00231181251132508 Delta[8]
   + covar_4_8 + [ - 0.00231181251132508 Delta[4] * Delta[8] ]
   = 0.00231181251132508
 covar_def_4_9: 0.00103527270034619 Delta[4] + 0.00103527270034619 Delta[9]
   + covar_4_9 + [ - 0.00103527270034619 Delta[4] * Delta[9] ]
   = 0.00103527270034619
 covar_def_4_10: 0.00116809247726192 Delta[4]
   + 0.00116809247726192 Delta[10] + covar_4_10 + [
   - 0.00116809247726192 Delta[4] * Delta[10] ] = 0.00116809247726192
 phi_def_5: - 1.104338492460713 Delta[5] + phi_5 + [
   1.104338492460713 Delta[5] ^2 ] = 0.1228576572862543
 covar_def_5_6: 0.00144277273099185 Delta[5] + 0.00144277273099185 Delta[6]
   + covar_5_6 + [ - 0.00144277273099185 Delta[5] * Delta[6] ]
   = 0.00144277273099185
 covar_def_5_7: 0.00570351944793669 Delta[5] + 0.00570351944793669 Delta[7]
   + covar_5_7 + [ - 0.00570351944793669 Delta[5] * Delta[7] ]
   = 0.00570351944793669
 covar_def_5_8: 0.00323437851229112 Delta[5] + 0.00323437851229112 Delta[8]
   + covar_5_8 + [ - 0.00323437851229112 Delta[5] * Delta[8] ]
   = 0.00323437851229112
 covar_def_5_9: 0.00434263741339491 Delta[5] + 0.00434263741339491 Delta[9]
   + covar_5_9 + [ - 0.00434263741339491 Delta[5] * Delta[9] ]
   = 0.00434263741339491
 covar_def_5_10: 0.0208253584021674 Delta[5] + 0.0208253584021674 Delta[10]
   + covar_5_10 + [ - 0.0208253584021674 Delta[5] * Delta[10] ]
   = 0.0208253584021674
 phi_def_6: - 1.104338492460713 Delta[6] + phi_6 + [
   1.104338492460713 Delta[6] ^2 ] = 0.1228576572862543
 covar_def_6_7: 0.00156919954195005 Delta[6] + 0.00156919954195005 Delta[7]
   + covar_6_7 + [ - 0.00156919954195005 Delta[6] * Delta[7] ]
   = 0.00156919954195005
 covar_def_6_8: 0.00345645542232836 Delta[6] + 0.00345645542232836 Delta[8]
   + covar_6_8 + [ - 0.00345645542232836 Delta[6] * Delta[8] ]
   = 0.00345645542232836
 covar_def_6_9: 0.00133826553228679 Delta[6] + 0.00133826553228679 Delta[9]
   + covar_6_9 + [ - 0.00133826553228679 Delta[6] * Delta[9] ]
   = 0.00133826553228679
 covar_def_6_10: 0.00339518256960679 Delta[6]
   + 0.00339518256960679 Delta[10] + covar_6_10 + [
   - 0.00339518256960679 Delta[6] * Delta[10] ] = 0.00339518256960679
 phi_def_7: - 1.104338492460713 Delta[7] + phi_7 + [
   1.104338492460713 Delta[7] ^2 ] = 0.1228576572862543
 covar_def_7_8: 0.00253235262046432 Delta[7] + 0.00253235262046432 Delta[8]
   + covar_7_8 + [ - 0.00253235262046432 Delta[7] * Delta[8] ]
   = 0.00253235262046432
 covar_def_7_9: 0.00436823045608454 Delta[7] + 0.00436823045608454 Delta[9]
   + covar_7_9 + [ - 0.00436823045608454 Delta[7] * Delta[9] ]
   = 0.00436823045608454
 covar_def_7_10: 0.00612957195713708 Delta[7]
   + 0.00612957195713708 Delta[10] + covar_7_10 + [
   - 0.00612957195713708 Delta[7] * Delta[10] ] = 0.00612957195713708
 phi_def_8: - 1.104338492460713 Delta[8] + phi_8 + [
   1.104338492460713 Delta[8] ^2 ] = 0.1228576572862543
 covar_def_8_9: 0.00319320879501321 Delta[8] + 0.00319320879501321 Delta[9]
   + covar_8_9 + [ - 0.00319320879501321 Delta[8] * Delta[9] ]
   = 0.00319320879501321
 covar_def_8_10: 0.00712052227524366 Delta[8]
   + 0.00712052227524366 Delta[10] + covar_8_10 + [
   - 0.00712052227524366 Delta[8] * Delta[10] ] = 0.00712052227524366
 phi_def_9: - 1.104338492460713 Delta[9] + phi_9 + [
   1.104338492460713 Delta[9] ^2 ] = 0.1228576572862543
 covar_def_9_10: 0.00751892122016888 Delta[9]
   + 0.00751892122016888 Delta[10] + covar_9_10 + [
   - 0.00751892122016888 Delta[9] * Delta[10] ] = 0.00751892122016888
 phi_def_10: - 1.104338492460713 Delta[10] + phi_10 + [
   1.104338492460713 Delta[10] ^2 ] = 0.1228576572862543
 qc88: C167 + [ - C166 ^2 ] = 0
 qc89: [ weight[0] * expectation[0]
   - 0.00481162484333182 weight[0] * put_price[0]
   + weight[1] * expectation[1]
   - 0.00347813977264718 weight[1] * put_price[1]
   + weight[2] * expectation[2]
   - 0.00253074850161585 weight[2] * put_price[2]
   + weight[3] * expectation[3]
   - 0.0023505076961768 weight[3] * put_price[3]
   + weight[4] * expectation[4]
   - 0.00768757676755555 weight[4] * put_price[4]
   + weight[5] * expectation[5]
   - 0.00317561136672719 weight[5] * put_price[5]
   + weight[6] * expectation[6] - 0.00101312 weight[6] * put_price[6]
   + weight[7] * expectation[7]
   - 0.00672540173233279 weight[7] * put_price[7]
   + weight[8] * expectation[8]
   - 0.0126214812271933 weight[8] * put_price[8]
   + weight[9] * expectation[9]
   - 0.00194454163460183 weight[9] * put_price[9]
   + weight[10] * expectation[10]
   - 0.082169268178388 weight[10] * put_price[10] - C165 * C166 ]
   >= 0.0122722344290394
Bounds
 expectation[0] free
 expectation[1] free
 expectation[2] free
 expectation[3] free
 expectation[4] free
 expectation[5] free
 expectation[6] free
 expectation[7] free
 expectation[8] free
 expectation[9] free
 expectation[10] free
 0.1 <= Delta[0] <= 0.5
 0.1 <= Delta[1] <= 0.5
 0.1 <= Delta[2] <= 0.5
 0.1 <= Delta[3] <= 0.5
 0.1 <= Delta[4] <= 0.5
 0.1 <= Delta[5] <= 0.5
 0.1 <= Delta[6] <= 0.5
 0.1 <= Delta[7] <= 0.5
 0.1 <= Delta[8] <= 0.5
 0.1 <= Delta[9] <= 0.5
 0.1 <= Delta[10] <= 0.5
 put_price[0] free
 put_price[1] free
 put_price[2] free
 put_price[3] free
 put_price[4] free
 put_price[5] free
 put_price[6] free
 put_price[7] free
 put_price[8] free
 put_price[9] free
 put_price[10] free
 d1_0 free
 d2_0 free
 cdf_d1_0 free
 cdf_d2_0 free
 d1_1 free
 d2_1 free
 cdf_d1_1 free
 cdf_d2_1 free
 d1_2 free
 d2_2 free
 cdf_d1_2 free
 cdf_d2_2 free
 d1_3 free
 d2_3 free
 cdf_d1_3 free
 cdf_d2_3 free
 d1_4 free
 d2_4 free
 cdf_d1_4 free
 cdf_d2_4 free
 d1_5 free
 d2_5 free
 cdf_d1_5 free
 cdf_d2_5 free
 d1_6 free
 d2_6 free
 cdf_d1_6 free
 cdf_d2_6 free
 d1_7 free
 d2_7 free
 cdf_d1_7 free
 cdf_d2_7 free
 d1_8 free
 d2_8 free
 cdf_d1_8 free
 cdf_d2_8 free
 d1_9 free
 d2_9 free
 cdf_d1_9 free
 cdf_d2_9 free
 d1_10 free
 d2_10 free
 cdf_d1_10 free
 cdf_d2_10 free
 covar_0_1 free
 covar_0_2 free
 covar_0_3 free
 covar_0_4 free
 covar_0_5 free
 covar_0_6 free
 covar_0_7 free
 covar_0_8 free
 covar_0_9 free
 covar_0_10 free
 covar_1_2 free
 covar_1_3 free
 covar_1_4 free
 covar_1_5 free
 covar_1_6 free
 covar_1_7 free
 covar_1_8 free
 covar_1_9 free
 covar_1_10 free
 covar_2_3 free
 covar_2_4 free
 covar_2_5 free
 covar_2_6 free
 covar_2_7 free
 covar_2_8 free
 covar_2_9 free
 covar_2_10 free
 covar_3_4 free
 covar_3_5 free
 covar_3_6 free
 covar_3_7 free
 covar_3_8 free
 covar_3_9 free
 covar_3_10 free
 covar_4_5 free
 covar_4_6 free
 covar_4_7 free
 covar_4_8 free
 covar_4_9 free
 covar_4_10 free
 covar_5_6 free
 covar_5_7 free
 covar_5_8 free
 covar_5_9 free
 covar_5_10 free
 covar_6_7 free
 covar_6_8 free
 covar_6_9 free
 covar_6_10 free
 covar_7_8 free
 covar_7_9 free
 covar_7_10 free
 covar_8_9 free
 covar_8_10 free
 covar_9_10 free
 C165 free
General Constraints
 GC0: cdf_d1_0 = PWL ( d1_0 ) : (-5, 2.86652e-07) (-4.9, 4.79183e-07) 
  (-4.8, 7.93328e-07) (-4.7, 1.30081e-06) (-4.6, 2.11245e-06) 
  (-4.5, 3.39767e-06) (-4.4, 5.41254e-06) (-4.3, 8.53991e-06) 
  (-4.2, 1.33457e-05) (-4.1, 2.06575e-05) (-4, 3.16712e-05) 
  (-3.9, 4.80963e-05) (-3.8, 7.2348e-05) (-3.7, 1.0779973347740945e-04) 
  (-3.6, 1.5910859015755285e-04) (-3.5, 0.000232629) 
  (-3.4, 3.3692926567685522e-04) (-3.3, 4.8342414238378151e-04) 
  (-3.2, 0.000687138) (-3.1, 9.6760321321837095e-04) 
  (-3, 0.0013498980316301) (-2.9, 0.00186581330038404) 
  (-2.8, 0.00255513033042792) (-2.7, 0.00346697380304067) 
  (-2.6, 0.00466118802371873) (-2.5, 0.00620966532577616) 
  (-2.4, 0.00819753592459616) (-2.3, 0.0107241100216758) 
  (-2.2, 0.0139034475134986) (-2.1, 0.0178644205628166) 
  (-2, 0.0227501319481792) (-1.9, 0.0287165598160018) 
  (-1.8, 0.0359303191129258) (-1.7, 0.0445654627585431) 
  (-1.6, 0.0547992916995581) (-1.5, 0.0668072012688581) 
  (-1.4, 0.0807566592337711) (-1.3, 0.0968004845856104) 
  (-1.2, 0.1150696702217083) (-1.1, 0.1356660609463828) 
  (-1, 0.1586552539314571) (-0.9, 0.1840601253467596) 
  (-0.8, 0.2118553985833967) (-0.7, 0.241963652223073) 
  (-0.6, 0.2742531177500737) (-0.5, 0.3085375387259869) 
  (-0.4, 0.344578258389676) (-0.3, 0.3820885778110474) 
  (-0.2, 0.4207402905608972) (-0.1, 0.4601721627229712) (0, 0.5) 
  (0.1, 0.5398278372770292) (0.2, 0.5792597094391031) 
  (0.3, 0.6179114221889529) (0.4, 0.6554217416103243) 
  (0.5, 0.6914624612740131) (0.6, 0.7257468822499266) 
  (0.7, 0.758036347776927) (0.8, 0.7881446014166035) 
  (0.9, 0.8159398746532406) (1, 0.8413447460685429) 
  (1.1, 0.8643339390536174) (1.2, 0.8849303297782918) 
  (1.3, 0.9031995154143897) (1.4, 0.919243340766229) 
  (1.5, 0.9331927987311419) (1.6, 0.945200708300442) 
  (1.7, 0.955434537241457) (1.8, 0.9640696808870742) 
  (1.9, 0.9712834401839983) (2, 0.9772498680518208) 
  (2.1, 0.9821355794371834) (2.2, 0.9860965524865014) 
  (2.3, 0.9892758899783243) (2.4, 0.991802464075404) 
  (2.5, 0.9937903346742238) (2.6, 0.9953388119762813) 
  (2.7, 0.9965330261969594) (2.8, 0.9974448696695721) 
  (2.9, 0.998134186699616) (3, 0.9986501019683699) 
  (3.1, 0.9990323967867816) (3.2, 0.9993128620620841) 
  (3.3, 0.9995165758576162) (3.4, 0.9996630707343231) 
  (3.5, 0.9997673709209645) (3.6, 0.9998408914098424) 
  (3.7, 0.9998922002665226) (3.8, 0.9999276519560749) 
  (3.9, 0.9999519036559824) (4, 0.9999683287581669) 
  (4.1, 0.9999793424930874) (4.2, 0.9999866542509841) 
  (4.3, 0.999991460094529) (4.4, 0.9999945874560923) 
  (4.5, 0.9999966023268753) (4.6, 0.9999978875452975) 
  (4.7, 0.999998699192546) (4.8, 0.9999992066718481) 
  (4.9, 0.9999995208167234) (5, 0.9999997133484282)
 GC1: cdf_d2_0 = PWL ( d2_0 ) : (-5, 2.86652e-07) (-4.9, 4.79183e-07) 
  (-4.8, 7.93328e-07) (-4.7, 1.30081e-06) (-4.6, 2.11245e-06) 
  (-4.5, 3.39767e-06) (-4.4, 5.41254e-06) (-4.3, 8.53991e-06) 
  (-4.2, 1.33457e-05) (-4.1, 2.06575e-05) (-4, 3.16712e-05) 
  (-3.9, 4.80963e-05) (-3.8, 7.2348e-05) (-3.7, 1.0779973347740945e-04) 
  (-3.6, 1.5910859015755285e-04) (-3.5, 0.000232629) 
  (-3.4, 3.3692926567685522e-04) (-3.3, 4.8342414238378151e-04) 
  (-3.2, 0.000687138) (-3.1, 9.6760321321837095e-04) 
  (-3, 0.0013498980316301) (-2.9, 0.00186581330038404) 
  (-2.8, 0.00255513033042792) (-2.7, 0.00346697380304067) 
  (-2.6, 0.00466118802371873) (-2.5, 0.00620966532577616) 
  (-2.4, 0.00819753592459616) (-2.3, 0.0107241100216758) 
  (-2.2, 0.0139034475134986) (-2.1, 0.0178644205628166) 
  (-2, 0.0227501319481792) (-1.9, 0.0287165598160018) 
  (-1.8, 0.0359303191129258) (-1.7, 0.0445654627585431) 
  (-1.6, 0.0547992916995581) (-1.5, 0.0668072012688581) 
  (-1.4, 0.0807566592337711) (-1.3, 0.0968004845856104) 
  (-1.2, 0.1150696702217083) (-1.1, 0.1356660609463828) 
  (-1, 0.1586552539314571) (-0.9, 0.1840601253467596) 
  (-0.8, 0.2118553985833967) (-0.7, 0.241963652223073) 
  (-0.6, 0.2742531177500737) (-0.5, 0.3085375387259869) 
  (-0.4, 0.344578258389676) (-0.3, 0.3820885778110474) 
  (-0.2, 0.4207402905608972) (-0.1, 0.4601721627229712) (0, 0.5) 
  (0.1, 0.5398278372770292) (0.2, 0.5792597094391031) 
  (0.3, 0.6179114221889529) (0.4, 0.6554217416103243) 
  (0.5, 0.6914624612740131) (0.6, 0.7257468822499266) 
  (0.7, 0.758036347776927) (0.8, 0.7881446014166035) 
  (0.9, 0.8159398746532406) (1, 0.8413447460685429) 
  (1.1, 0.8643339390536174) (1.2, 0.8849303297782918) 
  (1.3, 0.9031995154143897) (1.4, 0.919243340766229) 
  (1.5, 0.9331927987311419) (1.6, 0.945200708300442) 
  (1.7, 0.955434537241457) (1.8, 0.9640696808870742) 
  (1.9, 0.9712834401839983) (2, 0.9772498680518208) 
  (2.1, 0.9821355794371834) (2.2, 0.9860965524865014) 
  (2.3, 0.9892758899783243) (2.4, 0.991802464075404) 
  (2.5, 0.9937903346742238) (2.6, 0.9953388119762813) 
  (2.7, 0.9965330261969594) (2.8, 0.9974448696695721) 
  (2.9, 0.998134186699616) (3, 0.9986501019683699) 
  (3.1, 0.9990323967867816) (3.2, 0.9993128620620841) 
  (3.3, 0.9995165758576162) (3.4, 0.9996630707343231) 
  (3.5, 0.9997673709209645) (3.6, 0.9998408914098424) 
  (3.7, 0.9998922002665226) (3.8, 0.9999276519560749) 
  (3.9, 0.9999519036559824) (4, 0.9999683287581669) 
  (4.1, 0.9999793424930874) (4.2, 0.9999866542509841) 
  (4.3, 0.999991460094529) (4.4, 0.9999945874560923) 
  (4.5, 0.9999966023268753) (4.6, 0.9999978875452975) 
  (4.7, 0.999998699192546) (4.8, 0.9999992066718481) 
  (4.9, 0.9999995208167234) (5, 0.9999997133484282)
 GC2: cdf_d1_1 = PWL ( d1_1 ) : (-5, 2.86652e-07) (-4.9, 4.79183e-07) 
  (-4.8, 7.93328e-07) (-4.7, 1.30081e-06) (-4.6, 2.11245e-06) 
  (-4.5, 3.39767e-06) (-4.4, 5.41254e-06) (-4.3, 8.53991e-06) 
  (-4.2, 1.33457e-05) (-4.1, 2.06575e-05) (-4, 3.16712e-05) 
  (-3.9, 4.80963e-05) (-3.8, 7.2348e-05) (-3.7, 1.0779973347740945e-04) 
  (-3.6, 1.5910859015755285e-04) (-3.5, 0.000232629) 
  (-3.4, 3.3692926567685522e-04) (-3.3, 4.8342414238378151e-04) 
  (-3.2, 0.000687138) (-3.1, 9.6760321321837095e-04) 
  (-3, 0.0013498980316301) (-2.9, 0.00186581330038404) 
  (-2.8, 0.00255513033042792) (-2.7, 0.00346697380304067) 
  (-2.6, 0.00466118802371873) (-2.5, 0.00620966532577616) 
  (-2.4, 0.00819753592459616) (-2.3, 0.0107241100216758) 
  (-2.2, 0.0139034475134986) (-2.1, 0.0178644205628166) 
  (-2, 0.0227501319481792) (-1.9, 0.0287165598160018) 
  (-1.8, 0.0359303191129258) (-1.7, 0.0445654627585431) 
  (-1.6, 0.0547992916995581) (-1.5, 0.0668072012688581) 
  (-1.4, 0.0807566592337711) (-1.3, 0.0968004845856104) 
  (-1.2, 0.1150696702217083) (-1.1, 0.1356660609463828) 
  (-1, 0.1586552539314571) (-0.9, 0.1840601253467596) 
  (-0.8, 0.2118553985833967) (-0.7, 0.241963652223073) 
  (-0.6, 0.2742531177500737) (-0.5, 0.3085375387259869) 
  (-0.4, 0.344578258389676) (-0.3, 0.3820885778110474) 
  (-0.2, 0.4207402905608972) (-0.1, 0.4601721627229712) (0, 0.5) 
  (0.1, 0.5398278372770292) (0.2, 0.5792597094391031) 
  (0.3, 0.6179114221889529) (0.4, 0.6554217416103243) 
  (0.5, 0.6914624612740131) (0.6, 0.7257468822499266) 
  (0.7, 0.758036347776927) (0.8, 0.7881446014166035) 
  (0.9, 0.8159398746532406) (1, 0.8413447460685429) 
  (1.1, 0.8643339390536174) (1.2, 0.8849303297782918) 
  (1.3, 0.9031995154143897) (1.4, 0.919243340766229) 
  (1.5, 0.9331927987311419) (1.6, 0.945200708300442) 
  (1.7, 0.955434537241457) (1.8, 0.9640696808870742) 
  (1.9, 0.9712834401839983) (2, 0.9772498680518208) 
  (2.1, 0.9821355794371834) (2.2, 0.9860965524865014) 
  (2.3, 0.9892758899783243) (2.4, 0.991802464075404) 
  (2.5, 0.9937903346742238) (2.6, 0.9953388119762813) 
  (2.7, 0.9965330261969594) (2.8, 0.9974448696695721) 
  (2.9, 0.998134186699616) (3, 0.9986501019683699) 
  (3.1, 0.9990323967867816) (3.2, 0.9993128620620841) 
  (3.3, 0.9995165758576162) (3.4, 0.9996630707343231) 
  (3.5, 0.9997673709209645) (3.6, 0.9998408914098424) 
  (3.7, 0.9998922002665226) (3.8, 0.9999276519560749) 
  (3.9, 0.9999519036559824) (4, 0.9999683287581669) 
  (4.1, 0.9999793424930874) (4.2, 0.9999866542509841) 
  (4.3, 0.999991460094529) (4.4, 0.9999945874560923) 
  (4.5, 0.9999966023268753) (4.6, 0.9999978875452975) 
  (4.7, 0.999998699192546) (4.8, 0.9999992066718481) 
  (4.9, 0.9999995208167234) (5, 0.9999997133484282)
 GC3: cdf_d2_1 = PWL ( d2_1 ) : (-5, 2.86652e-07) (-4.9, 4.79183e-07) 
  (-4.8, 7.93328e-07) (-4.7, 1.30081e-06) (-4.6, 2.11245e-06) 
  (-4.5, 3.39767e-06) (-4.4, 5.41254e-06) (-4.3, 8.53991e-06) 
  (-4.2, 1.33457e-05) (-4.1, 2.06575e-05) (-4, 3.16712e-05) 
  (-3.9, 4.80963e-05) (-3.8, 7.2348e-05) (-3.7, 1.0779973347740945e-04) 
  (-3.6, 1.5910859015755285e-04) (-3.5, 0.000232629) 
  (-3.4, 3.3692926567685522e-04) (-3.3, 4.8342414238378151e-04) 
  (-3.2, 0.000687138) (-3.1, 9.6760321321837095e-04) 
  (-3, 0.0013498980316301) (-2.9, 0.00186581330038404) 
  (-2.8, 0.00255513033042792) (-2.7, 0.00346697380304067) 
  (-2.6, 0.00466118802371873) (-2.5, 0.00620966532577616) 
  (-2.4, 0.00819753592459616) (-2.3, 0.0107241100216758) 
  (-2.2, 0.0139034475134986) (-2.1, 0.0178644205628166) 
  (-2, 0.0227501319481792) (-1.9, 0.0287165598160018) 
  (-1.8, 0.0359303191129258) (-1.7, 0.0445654627585431) 
  (-1.6, 0.0547992916995581) (-1.5, 0.0668072012688581) 
  (-1.4, 0.0807566592337711) (-1.3, 0.0968004845856104) 
  (-1.2, 0.1150696702217083) (-1.1, 0.1356660609463828) 
  (-1, 0.1586552539314571) (-0.9, 0.1840601253467596) 
  (-0.8, 0.2118553985833967) (-0.7, 0.241963652223073) 
  (-0.6, 0.2742531177500737) (-0.5, 0.3085375387259869) 
  (-0.4, 0.344578258389676) (-0.3, 0.3820885778110474) 
  (-0.2, 0.4207402905608972) (-0.1, 0.4601721627229712) (0, 0.5) 
  (0.1, 0.5398278372770292) (0.2, 0.5792597094391031) 
  (0.3, 0.6179114221889529) (0.4, 0.6554217416103243) 
  (0.5, 0.6914624612740131) (0.6, 0.7257468822499266) 
  (0.7, 0.758036347776927) (0.8, 0.7881446014166035) 
  (0.9, 0.8159398746532406) (1, 0.8413447460685429) 
  (1.1, 0.8643339390536174) (1.2, 0.8849303297782918) 
  (1.3, 0.9031995154143897) (1.4, 0.919243340766229) 
  (1.5, 0.9331927987311419) (1.6, 0.945200708300442) 
  (1.7, 0.955434537241457) (1.8, 0.9640696808870742) 
  (1.9, 0.9712834401839983) (2, 0.9772498680518208) 
  (2.1, 0.9821355794371834) (2.2, 0.9860965524865014) 
  (2.3, 0.9892758899783243) (2.4, 0.991802464075404) 
  (2.5, 0.9937903346742238) (2.6, 0.9953388119762813) 
  (2.7, 0.9965330261969594) (2.8, 0.9974448696695721) 
  (2.9, 0.998134186699616) (3, 0.9986501019683699) 
  (3.1, 0.9990323967867816) (3.2, 0.9993128620620841) 
  (3.3, 0.9995165758576162) (3.4, 0.9996630707343231) 
  (3.5, 0.9997673709209645) (3.6, 0.9998408914098424) 
  (3.7, 0.9998922002665226) (3.8, 0.9999276519560749) 
  (3.9, 0.9999519036559824) (4, 0.9999683287581669) 
  (4.1, 0.9999793424930874) (4.2, 0.9999866542509841) 
  (4.3, 0.999991460094529) (4.4, 0.9999945874560923) 
  (4.5, 0.9999966023268753) (4.6, 0.9999978875452975) 
  (4.7, 0.999998699192546) (4.8, 0.9999992066718481) 
  (4.9, 0.9999995208167234) (5, 0.9999997133484282)
 GC4: cdf_d1_2 = PWL ( d1_2 ) : (-5, 2.86652e-07) (-4.9, 4.79183e-07) 
  (-4.8, 7.93328e-07) (-4.7, 1.30081e-06) (-4.6, 2.11245e-06) 
  (-4.5, 3.39767e-06) (-4.4, 5.41254e-06) (-4.3, 8.53991e-06) 
  (-4.2, 1.33457e-05) (-4.1, 2.06575e-05) (-4, 3.16712e-05) 
  (-3.9, 4.80963e-05) (-3.8, 7.2348e-05) (-3.7, 1.0779973347740945e-04) 
  (-3.6, 1.5910859015755285e-04) (-3.5, 0.000232629) 
  (-3.4, 3.3692926567685522e-04) (-3.3, 4.8342414238378151e-04) 
  (-3.2, 0.000687138) (-3.1, 9.6760321321837095e-04) 
  (-3, 0.0013498980316301) (-2.9, 0.00186581330038404) 
  (-2.8, 0.00255513033042792) (-2.7, 0.00346697380304067) 
  (-2.6, 0.00466118802371873) (-2.5, 0.00620966532577616) 
  (-2.4, 0.00819753592459616) (-2.3, 0.0107241100216758) 
  (-2.2, 0.0139034475134986) (-2.1, 0.0178644205628166) 
  (-2, 0.0227501319481792) (-1.9, 0.0287165598160018) 
  (-1.8, 0.0359303191129258) (-1.7, 0.0445654627585431) 
  (-1.6, 0.0547992916995581) (-1.5, 0.0668072012688581) 
  (-1.4, 0.0807566592337711) (-1.3, 0.0968004845856104) 
  (-1.2, 0.1150696702217083) (-1.1, 0.1356660609463828) 
  (-1, 0.1586552539314571) (-0.9, 0.1840601253467596) 
  (-0.8, 0.2118553985833967) (-0.7, 0.241963652223073) 
  (-0.6, 0.2742531177500737) (-0.5, 0.3085375387259869) 
  (-0.4, 0.344578258389676) (-0.3, 0.3820885778110474) 
  (-0.2, 0.4207402905608972) (-0.1, 0.4601721627229712) (0, 0.5) 
  (0.1, 0.5398278372770292) (0.2, 0.5792597094391031) 
  (0.3, 0.6179114221889529) (0.4, 0.6554217416103243) 
  (0.5, 0.6914624612740131) (0.6, 0.7257468822499266) 
  (0.7, 0.758036347776927) (0.8, 0.7881446014166035) 
  (0.9, 0.8159398746532406) (1, 0.8413447460685429) 
  (1.1, 0.8643339390536174) (1.2, 0.8849303297782918) 
  (1.3, 0.9031995154143897) (1.4, 0.919243340766229) 
  (1.5, 0.9331927987311419) (1.6, 0.945200708300442) 
  (1.7, 0.955434537241457) (1.8, 0.9640696808870742) 
  (1.9, 0.9712834401839983) (2, 0.9772498680518208) 
  (2.1, 0.9821355794371834) (2.2, 0.9860965524865014) 
  (2.3, 0.9892758899783243) (2.4, 0.991802464075404) 
  (2.5, 0.9937903346742238) (2.6, 0.9953388119762813) 
  (2.7, 0.9965330261969594) (2.8, 0.9974448696695721) 
  (2.9, 0.998134186699616) (3, 0.9986501019683699) 
  (3.1, 0.9990323967867816) (3.2, 0.9993128620620841) 
  (3.3, 0.9995165758576162) (3.4, 0.9996630707343231) 
  (3.5, 0.9997673709209645) (3.6, 0.9998408914098424) 
  (3.7, 0.9998922002665226) (3.8, 0.9999276519560749) 
  (3.9, 0.9999519036559824) (4, 0.9999683287581669) 
  (4.1, 0.9999793424930874) (4.2, 0.9999866542509841) 
  (4.3, 0.999991460094529) (4.4, 0.9999945874560923) 
  (4.5, 0.9999966023268753) (4.6, 0.9999978875452975) 
  (4.7, 0.999998699192546) (4.8, 0.9999992066718481) 
  (4.9, 0.9999995208167234) (5, 0.9999997133484282)
 GC5: cdf_d2_2 = PWL ( d2_2 ) : (-5, 2.86652e-07) (-4.9, 4.79183e-07) 
  (-4.8, 7.93328e-07) (-4.7, 1.30081e-06) (-4.6, 2.11245e-06) 
  (-4.5, 3.39767e-06) (-4.4, 5.41254e-06) (-4.3, 8.53991e-06) 
  (-4.2, 1.33457e-05) (-4.1, 2.06575e-05) (-4, 3.16712e-05) 
  (-3.9, 4.80963e-05) (-3.8, 7.2348e-05) (-3.7, 1.0779973347740945e-04) 
  (-3.6, 1.5910859015755285e-04) (-3.5, 0.000232629) 
  (-3.4, 3.3692926567685522e-04) (-3.3, 4.8342414238378151e-04) 
  (-3.2, 0.000687138) (-3.1, 9.6760321321837095e-04) 
  (-3, 0.0013498980316301) (-2.9, 0.00186581330038404) 
  (-2.8, 0.00255513033042792) (-2.7, 0.00346697380304067) 
  (-2.6, 0.00466118802371873) (-2.5, 0.00620966532577616) 
  (-2.4, 0.00819753592459616) (-2.3, 0.0107241100216758) 
  (-2.2, 0.0139034475134986) (-2.1, 0.0178644205628166) 
  (-2, 0.0227501319481792) (-1.9, 0.0287165598160018) 
  (-1.8, 0.0359303191129258) (-1.7, 0.0445654627585431) 
  (-1.6, 0.0547992916995581) (-1.5, 0.0668072012688581) 
  (-1.4, 0.0807566592337711) (-1.3, 0.0968004845856104) 
  (-1.2, 0.1150696702217083) (-1.1, 0.1356660609463828) 
  (-1, 0.1586552539314571) (-0.9, 0.1840601253467596) 
  (-0.8, 0.2118553985833967) (-0.7, 0.241963652223073) 
  (-0.6, 0.2742531177500737) (-0.5, 0.3085375387259869) 
  (-0.4, 0.344578258389676) (-0.3, 0.3820885778110474) 
  (-0.2, 0.4207402905608972) (-0.1, 0.4601721627229712) (0, 0.5) 
  (0.1, 0.5398278372770292) (0.2, 0.5792597094391031) 
  (0.3, 0.6179114221889529) (0.4, 0.6554217416103243) 
  (0.5, 0.6914624612740131) (0.6, 0.7257468822499266) 
  (0.7, 0.758036347776927) (0.8, 0.7881446014166035) 
  (0.9, 0.8159398746532406) (1, 0.8413447460685429) 
  (1.1, 0.8643339390536174) (1.2, 0.8849303297782918) 
  (1.3, 0.9031995154143897) (1.4, 0.919243340766229) 
  (1.5, 0.9331927987311419) (1.6, 0.945200708300442) 
  (1.7, 0.955434537241457) (1.8, 0.9640696808870742) 
  (1.9, 0.9712834401839983) (2, 0.9772498680518208) 
  (2.1, 0.9821355794371834) (2.2, 0.9860965524865014) 
  (2.3, 0.9892758899783243) (2.4, 0.991802464075404) 
  (2.5, 0.9937903346742238) (2.6, 0.9953388119762813) 
  (2.7, 0.9965330261969594) (2.8, 0.9974448696695721) 
  (2.9, 0.998134186699616) (3, 0.9986501019683699) 
  (3.1, 0.9990323967867816) (3.2, 0.9993128620620841) 
  (3.3, 0.9995165758576162) (3.4, 0.9996630707343231) 
  (3.5, 0.9997673709209645) (3.6, 0.9998408914098424) 
  (3.7, 0.9998922002665226) (3.8, 0.9999276519560749) 
  (3.9, 0.9999519036559824) (4, 0.9999683287581669) 
  (4.1, 0.9999793424930874) (4.2, 0.9999866542509841) 
  (4.3, 0.999991460094529) (4.4, 0.9999945874560923) 
  (4.5, 0.9999966023268753) (4.6, 0.9999978875452975) 
  (4.7, 0.999998699192546) (4.8, 0.9999992066718481) 
  (4.9, 0.9999995208167234) (5, 0.9999997133484282)
 GC6: cdf_d1_3 = PWL ( d1_3 ) : (-5, 2.86652e-07) (-4.9, 4.79183e-07) 
  (-4.8, 7.93328e-07) (-4.7, 1.30081e-06) (-4.6, 2.11245e-06) 
  (-4.5, 3.39767e-06) (-4.4, 5.41254e-06) (-4.3, 8.53991e-06) 
  (-4.2, 1.33457e-05) (-4.1, 2.06575e-05) (-4, 3.16712e-05) 
  (-3.9, 4.80963e-05) (-3.8, 7.2348e-05) (-3.7, 1.0779973347740945e-04) 
  (-3.6, 1.5910859015755285e-04) (-3.5, 0.000232629) 
  (-3.4, 3.3692926567685522e-04) (-3.3, 4.8342414238378151e-04) 
  (-3.2, 0.000687138) (-3.1, 9.6760321321837095e-04) 
  (-3, 0.0013498980316301) (-2.9, 0.00186581330038404) 
  (-2.8, 0.00255513033042792) (-2.7, 0.00346697380304067) 
  (-2.6, 0.00466118802371873) (-2.5, 0.00620966532577616) 
  (-2.4, 0.00819753592459616) (-2.3, 0.0107241100216758) 
  (-2.2, 0.0139034475134986) (-2.1, 0.0178644205628166) 
  (-2, 0.0227501319481792) (-1.9, 0.0287165598160018) 
  (-1.8, 0.0359303191129258) (-1.7, 0.0445654627585431) 
  (-1.6, 0.0547992916995581) (-1.5, 0.0668072012688581) 
  (-1.4, 0.0807566592337711) (-1.3, 0.0968004845856104) 
  (-1.2, 0.1150696702217083) (-1.1, 0.1356660609463828) 
  (-1, 0.1586552539314571) (-0.9, 0.1840601253467596) 
  (-0.8, 0.2118553985833967) (-0.7, 0.241963652223073) 
  (-0.6, 0.2742531177500737) (-0.5, 0.3085375387259869) 
  (-0.4, 0.344578258389676) (-0.3, 0.3820885778110474) 
  (-0.2, 0.4207402905608972) (-0.1, 0.4601721627229712) (0, 0.5) 
  (0.1, 0.5398278372770292) (0.2, 0.5792597094391031) 
  (0.3, 0.6179114221889529) (0.4, 0.6554217416103243) 
  (0.5, 0.6914624612740131) (0.6, 0.7257468822499266) 
  (0.7, 0.758036347776927) (0.8, 0.7881446014166035) 
  (0.9, 0.8159398746532406) (1, 0.8413447460685429) 
  (1.1, 0.8643339390536174) (1.2, 0.8849303297782918) 
  (1.3, 0.9031995154143897) (1.4, 0.919243340766229) 
  (1.5, 0.9331927987311419) (1.6, 0.945200708300442) 
  (1.7, 0.955434537241457) (1.8, 0.9640696808870742) 
  (1.9, 0.9712834401839983) (2, 0.9772498680518208) 
  (2.1, 0.9821355794371834) (2.2, 0.9860965524865014) 
  (2.3, 0.9892758899783243) (2.4, 0.991802464075404) 
  (2.5, 0.9937903346742238) (2.6, 0.9953388119762813) 
  (2.7, 0.9965330261969594) (2.8, 0.9974448696695721) 
  (2.9, 0.998134186699616) (3, 0.9986501019683699) 
  (3.1, 0.9990323967867816) (3.2, 0.9993128620620841) 
  (3.3, 0.9995165758576162) (3.4, 0.9996630707343231) 
  (3.5, 0.9997673709209645) (3.6, 0.9998408914098424) 
  (3.7, 0.9998922002665226) (3.8, 0.9999276519560749) 
  (3.9, 0.9999519036559824) (4, 0.9999683287581669) 
  (4.1, 0.9999793424930874) (4.2, 0.9999866542509841) 
  (4.3, 0.999991460094529) (4.4, 0.9999945874560923) 
  (4.5, 0.9999966023268753) (4.6, 0.9999978875452975) 
  (4.7, 0.999998699192546) (4.8, 0.9999992066718481) 
  (4.9, 0.9999995208167234) (5, 0.9999997133484282)
 GC7: cdf_d2_3 = PWL ( d2_3 ) : (-5, 2.86652e-07) (-4.9, 4.79183e-07) 
  (-4.8, 7.93328e-07) (-4.7, 1.30081e-06) (-4.6, 2.11245e-06) 
  (-4.5, 3.39767e-06) (-4.4, 5.41254e-06) (-4.3, 8.53991e-06) 
  (-4.2, 1.33457e-05) (-4.1, 2.06575e-05) (-4, 3.16712e-05) 
  (-3.9, 4.80963e-05) (-3.8, 7.2348e-05) (-3.7, 1.0779973347740945e-04) 
  (-3.6, 1.5910859015755285e-04) (-3.5, 0.000232629) 
  (-3.4, 3.3692926567685522e-04) (-3.3, 4.8342414238378151e-04) 
  (-3.2, 0.000687138) (-3.1, 9.6760321321837095e-04) 
  (-3, 0.0013498980316301) (-2.9, 0.00186581330038404) 
  (-2.8, 0.00255513033042792) (-2.7, 0.00346697380304067) 
  (-2.6, 0.00466118802371873) (-2.5, 0.00620966532577616) 
  (-2.4, 0.00819753592459616) (-2.3, 0.0107241100216758) 
  (-2.2, 0.0139034475134986) (-2.1, 0.0178644205628166) 
  (-2, 0.0227501319481792) (-1.9, 0.0287165598160018) 
  (-1.8, 0.0359303191129258) (-1.7, 0.0445654627585431) 
  (-1.6, 0.0547992916995581) (-1.5, 0.0668072012688581) 
  (-1.4, 0.0807566592337711) (-1.3, 0.0968004845856104) 
  (-1.2, 0.1150696702217083) (-1.1, 0.1356660609463828) 
  (-1, 0.1586552539314571) (-0.9, 0.1840601253467596) 
  (-0.8, 0.2118553985833967) (-0.7, 0.241963652223073) 
  (-0.6, 0.2742531177500737) (-0.5, 0.3085375387259869) 
  (-0.4, 0.344578258389676) (-0.3, 0.3820885778110474) 
  (-0.2, 0.4207402905608972) (-0.1, 0.4601721627229712) (0, 0.5) 
  (0.1, 0.5398278372770292) (0.2, 0.5792597094391031) 
  (0.3, 0.6179114221889529) (0.4, 0.6554217416103243) 
  (0.5, 0.6914624612740131) (0.6, 0.7257468822499266) 
  (0.7, 0.758036347776927) (0.8, 0.7881446014166035) 
  (0.9, 0.8159398746532406) (1, 0.8413447460685429) 
  (1.1, 0.8643339390536174) (1.2, 0.8849303297782918) 
  (1.3, 0.9031995154143897) (1.4, 0.919243340766229) 
  (1.5, 0.9331927987311419) (1.6, 0.945200708300442) 
  (1.7, 0.955434537241457) (1.8, 0.9640696808870742) 
  (1.9, 0.9712834401839983) (2, 0.9772498680518208) 
  (2.1, 0.9821355794371834) (2.2, 0.9860965524865014) 
  (2.3, 0.9892758899783243) (2.4, 0.991802464075404) 
  (2.5, 0.9937903346742238) (2.6, 0.9953388119762813) 
  (2.7, 0.9965330261969594) (2.8, 0.9974448696695721) 
  (2.9, 0.998134186699616) (3, 0.9986501019683699) 
  (3.1, 0.9990323967867816) (3.2, 0.9993128620620841) 
  (3.3, 0.9995165758576162) (3.4, 0.9996630707343231) 
  (3.5, 0.9997673709209645) (3.6, 0.9998408914098424) 
  (3.7, 0.9998922002665226) (3.8, 0.9999276519560749) 
  (3.9, 0.9999519036559824) (4, 0.9999683287581669) 
  (4.1, 0.9999793424930874) (4.2, 0.9999866542509841) 
  (4.3, 0.999991460094529) (4.4, 0.9999945874560923) 
  (4.5, 0.9999966023268753) (4.6, 0.9999978875452975) 
  (4.7, 0.999998699192546) (4.8, 0.9999992066718481) 
  (4.9, 0.9999995208167234) (5, 0.9999997133484282)
 GC8: cdf_d1_4 = PWL ( d1_4 ) : (-5, 2.86652e-07) (-4.9, 4.79183e-07) 
  (-4.8, 7.93328e-07) (-4.7, 1.30081e-06) (-4.6, 2.11245e-06) 
  (-4.5, 3.39767e-06) (-4.4, 5.41254e-06) (-4.3, 8.53991e-06) 
  (-4.2, 1.33457e-05) (-4.1, 2.06575e-05) (-4, 3.16712e-05) 
  (-3.9, 4.80963e-05) (-3.8, 7.2348e-05) (-3.7, 1.0779973347740945e-04) 
  (-3.6, 1.5910859015755285e-04) (-3.5, 0.000232629) 
  (-3.4, 3.3692926567685522e-04) (-3.3, 4.8342414238378151e-04) 
  (-3.2, 0.000687138) (-3.1, 9.6760321321837095e-04) 
  (-3, 0.0013498980316301) (-2.9, 0.00186581330038404) 
  (-2.8, 0.00255513033042792) (-2.7, 0.00346697380304067) 
  (-2.6, 0.00466118802371873) (-2.5, 0.00620966532577616) 
  (-2.4, 0.00819753592459616) (-2.3, 0.0107241100216758) 
  (-2.2, 0.0139034475134986) (-2.1, 0.0178644205628166) 
  (-2, 0.0227501319481792) (-1.9, 0.0287165598160018) 
  (-1.8, 0.0359303191129258) (-1.7, 0.0445654627585431) 
  (-1.6, 0.0547992916995581) (-1.5, 0.0668072012688581) 
  (-1.4, 0.0807566592337711) (-1.3, 0.0968004845856104) 
  (-1.2, 0.1150696702217083) (-1.1, 0.1356660609463828) 
  (-1, 0.1586552539314571) (-0.9, 0.1840601253467596) 
  (-0.8, 0.2118553985833967) (-0.7, 0.241963652223073) 
  (-0.6, 0.2742531177500737) (-0.5, 0.3085375387259869) 
  (-0.4, 0.344578258389676) (-0.3, 0.3820885778110474) 
  (-0.2, 0.4207402905608972) (-0.1, 0.4601721627229712) (0, 0.5) 
  (0.1, 0.5398278372770292) (0.2, 0.5792597094391031) 
  (0.3, 0.6179114221889529) (0.4, 0.6554217416103243) 
  (0.5, 0.6914624612740131) (0.6, 0.7257468822499266) 
  (0.7, 0.758036347776927) (0.8, 0.7881446014166035) 
  (0.9, 0.8159398746532406) (1, 0.8413447460685429) 
  (1.1, 0.8643339390536174) (1.2, 0.8849303297782918) 
  (1.3, 0.9031995154143897) (1.4, 0.919243340766229) 
  (1.5, 0.9331927987311419) (1.6, 0.945200708300442) 
  (1.7, 0.955434537241457) (1.8, 0.9640696808870742) 
  (1.9, 0.9712834401839983) (2, 0.9772498680518208) 
  (2.1, 0.9821355794371834) (2.2, 0.9860965524865014) 
  (2.3, 0.9892758899783243) (2.4, 0.991802464075404) 
  (2.5, 0.9937903346742238) (2.6, 0.9953388119762813) 
  (2.7, 0.9965330261969594) (2.8, 0.9974448696695721) 
  (2.9, 0.998134186699616) (3, 0.9986501019683699) 
  (3.1, 0.9990323967867816) (3.2, 0.9993128620620841) 
  (3.3, 0.9995165758576162) (3.4, 0.9996630707343231) 
  (3.5, 0.9997673709209645) (3.6, 0.9998408914098424) 
  (3.7, 0.9998922002665226) (3.8, 0.9999276519560749) 
  (3.9, 0.9999519036559824) (4, 0.9999683287581669) 
  (4.1, 0.9999793424930874) (4.2, 0.9999866542509841) 
  (4.3, 0.999991460094529) (4.4, 0.9999945874560923) 
  (4.5, 0.9999966023268753) (4.6, 0.9999978875452975) 
  (4.7, 0.999998699192546) (4.8, 0.9999992066718481) 
  (4.9, 0.9999995208167234) (5, 0.9999997133484282)
 GC9: cdf_d2_4 = PWL ( d2_4 ) : (-5, 2.86652e-07) (-4.9, 4.79183e-07) 
  (-4.8, 7.93328e-07) (-4.7, 1.30081e-06) (-4.6, 2.11245e-06) 
  (-4.5, 3.39767e-06) (-4.4, 5.41254e-06) (-4.3, 8.53991e-06) 
  (-4.2, 1.33457e-05) (-4.1, 2.06575e-05) (-4, 3.16712e-05) 
  (-3.9, 4.80963e-05) (-3.8, 7.2348e-05) (-3.7, 1.0779973347740945e-04) 
  (-3.6, 1.5910859015755285e-04) (-3.5, 0.000232629) 
  (-3.4, 3.3692926567685522e-04) (-3.3, 4.8342414238378151e-04) 
  (-3.2, 0.000687138) (-3.1, 9.6760321321837095e-04) 
  (-3, 0.0013498980316301) (-2.9, 0.00186581330038404) 
  (-2.8, 0.00255513033042792) (-2.7, 0.00346697380304067) 
  (-2.6, 0.00466118802371873) (-2.5, 0.00620966532577616) 
  (-2.4, 0.00819753592459616) (-2.3, 0.0107241100216758) 
  (-2.2, 0.0139034475134986) (-2.1, 0.0178644205628166) 
  (-2, 0.0227501319481792) (-1.9, 0.0287165598160018) 
  (-1.8, 0.0359303191129258) (-1.7, 0.0445654627585431) 
  (-1.6, 0.0547992916995581) (-1.5, 0.0668072012688581) 
  (-1.4, 0.0807566592337711) (-1.3, 0.0968004845856104) 
  (-1.2, 0.1150696702217083) (-1.1, 0.1356660609463828) 
  (-1, 0.1586552539314571) (-0.9, 0.1840601253467596) 
  (-0.8, 0.2118553985833967) (-0.7, 0.241963652223073) 
  (-0.6, 0.2742531177500737) (-0.5, 0.3085375387259869) 
  (-0.4, 0.344578258389676) (-0.3, 0.3820885778110474) 
  (-0.2, 0.4207402905608972) (-0.1, 0.4601721627229712) (0, 0.5) 
  (0.1, 0.5398278372770292) (0.2, 0.5792597094391031) 
  (0.3, 0.6179114221889529) (0.4, 0.6554217416103243) 
  (0.5, 0.6914624612740131) (0.6, 0.7257468822499266) 
  (0.7, 0.758036347776927) (0.8, 0.7881446014166035) 
  (0.9, 0.8159398746532406) (1, 0.8413447460685429) 
  (1.1, 0.8643339390536174) (1.2, 0.8849303297782918) 
  (1.3, 0.9031995154143897) (1.4, 0.919243340766229) 
  (1.5, 0.9331927987311419) (1.6, 0.945200708300442) 
  (1.7, 0.955434537241457) (1.8, 0.9640696808870742) 
  (1.9, 0.9712834401839983) (2, 0.9772498680518208) 
  (2.1, 0.9821355794371834) (2.2, 0.9860965524865014) 
  (2.3, 0.9892758899783243) (2.4, 0.991802464075404) 
  (2.5, 0.9937903346742238) (2.6, 0.9953388119762813) 
  (2.7, 0.9965330261969594) (2.8, 0.9974448696695721) 
  (2.9, 0.998134186699616) (3, 0.9986501019683699) 
  (3.1, 0.9990323967867816) (3.2, 0.9993128620620841) 
  (3.3, 0.9995165758576162) (3.4, 0.9996630707343231) 
  (3.5, 0.9997673709209645) (3.6, 0.9998408914098424) 
  (3.7, 0.9998922002665226) (3.8, 0.9999276519560749) 
  (3.9, 0.9999519036559824) (4, 0.9999683287581669) 
  (4.1, 0.9999793424930874) (4.2, 0.9999866542509841) 
  (4.3, 0.999991460094529) (4.4, 0.9999945874560923) 
  (4.5, 0.9999966023268753) (4.6, 0.9999978875452975) 
  (4.7, 0.999998699192546) (4.8, 0.9999992066718481) 
  (4.9, 0.9999995208167234) (5, 0.9999997133484282)
 GC10: cdf_d1_5 = PWL ( d1_5 ) : (-5, 2.86652e-07) (-4.9, 4.79183e-07) 
  (-4.8, 7.93328e-07) (-4.7, 1.30081e-06) (-4.6, 2.11245e-06) 
  (-4.5, 3.39767e-06) (-4.4, 5.41254e-06) (-4.3, 8.53991e-06) 
  (-4.2, 1.33457e-05) (-4.1, 2.06575e-05) (-4, 3.16712e-05) 
  (-3.9, 4.80963e-05) (-3.8, 7.2348e-05) (-3.7, 1.0779973347740945e-04) 
  (-3.6, 1.5910859015755285e-04) (-3.5, 0.000232629) 
  (-3.4, 3.3692926567685522e-04) (-3.3, 4.8342414238378151e-04) 
  (-3.2, 0.000687138) (-3.1, 9.6760321321837095e-04) 
  (-3, 0.0013498980316301) (-2.9, 0.00186581330038404) 
  (-2.8, 0.00255513033042792) (-2.7, 0.00346697380304067) 
  (-2.6, 0.00466118802371873) (-2.5, 0.00620966532577616) 
  (-2.4, 0.00819753592459616) (-2.3, 0.0107241100216758) 
  (-2.2, 0.0139034475134986) (-2.1, 0.0178644205628166) 
  (-2, 0.0227501319481792) (-1.9, 0.0287165598160018) 
  (-1.8, 0.0359303191129258) (-1.7, 0.0445654627585431) 
  (-1.6, 0.0547992916995581) (-1.5, 0.0668072012688581) 
  (-1.4, 0.0807566592337711) (-1.3, 0.0968004845856104) 
  (-1.2, 0.1150696702217083) (-1.1, 0.1356660609463828) 
  (-1, 0.1586552539314571) (-0.9, 0.1840601253467596) 
  (-0.8, 0.2118553985833967) (-0.7, 0.241963652223073) 
  (-0.6, 0.2742531177500737) (-0.5, 0.3085375387259869) 
  (-0.4, 0.344578258389676) (-0.3, 0.3820885778110474) 
  (-0.2, 0.4207402905608972) (-0.1, 0.4601721627229712) (0, 0.5) 
  (0.1, 0.5398278372770292) (0.2, 0.5792597094391031) 
  (0.3, 0.6179114221889529) (0.4, 0.6554217416103243) 
  (0.5, 0.6914624612740131) (0.6, 0.7257468822499266) 
  (0.7, 0.758036347776927) (0.8, 0.7881446014166035) 
  (0.9, 0.8159398746532406) (1, 0.8413447460685429) 
  (1.1, 0.8643339390536174) (1.2, 0.8849303297782918) 
  (1.3, 0.9031995154143897) (1.4, 0.919243340766229) 
  (1.5, 0.9331927987311419) (1.6, 0.945200708300442) 
  (1.7, 0.955434537241457) (1.8, 0.9640696808870742) 
  (1.9, 0.9712834401839983) (2, 0.9772498680518208) 
  (2.1, 0.9821355794371834) (2.2, 0.9860965524865014) 
  (2.3, 0.9892758899783243) (2.4, 0.991802464075404) 
  (2.5, 0.9937903346742238) (2.6, 0.9953388119762813) 
  (2.7, 0.9965330261969594) (2.8, 0.9974448696695721) 
  (2.9, 0.998134186699616) (3, 0.9986501019683699) 
  (3.1, 0.9990323967867816) (3.2, 0.9993128620620841) 
  (3.3, 0.9995165758576162) (3.4, 0.9996630707343231) 
  (3.5, 0.9997673709209645) (3.6, 0.9998408914098424) 
  (3.7, 0.9998922002665226) (3.8, 0.9999276519560749) 
  (3.9, 0.9999519036559824) (4, 0.9999683287581669) 
  (4.1, 0.9999793424930874) (4.2, 0.9999866542509841) 
  (4.3, 0.999991460094529) (4.4, 0.9999945874560923) 
  (4.5, 0.9999966023268753) (4.6, 0.9999978875452975) 
  (4.7, 0.999998699192546) (4.8, 0.9999992066718481) 
  (4.9, 0.9999995208167234) (5, 0.9999997133484282)
 GC11: cdf_d2_5 = PWL ( d2_5 ) : (-5, 2.86652e-07) (-4.9, 4.79183e-07) 
  (-4.8, 7.93328e-07) (-4.7, 1.30081e-06) (-4.6, 2.11245e-06) 
  (-4.5, 3.39767e-06) (-4.4, 5.41254e-06) (-4.3, 8.53991e-06) 
  (-4.2, 1.33457e-05) (-4.1, 2.06575e-05) (-4, 3.16712e-05) 
  (-3.9, 4.80963e-05) (-3.8, 7.2348e-05) (-3.7, 1.0779973347740945e-04) 
  (-3.6, 1.5910859015755285e-04) (-3.5, 0.000232629) 
  (-3.4, 3.3692926567685522e-04) (-3.3, 4.8342414238378151e-04) 
  (-3.2, 0.000687138) (-3.1, 9.6760321321837095e-04) 
  (-3, 0.0013498980316301) (-2.9, 0.00186581330038404) 
  (-2.8, 0.00255513033042792) (-2.7, 0.00346697380304067) 
  (-2.6, 0.00466118802371873) (-2.5, 0.00620966532577616) 
  (-2.4, 0.00819753592459616) (-2.3, 0.0107241100216758) 
  (-2.2, 0.0139034475134986) (-2.1, 0.0178644205628166) 
  (-2, 0.0227501319481792) (-1.9, 0.0287165598160018) 
  (-1.8, 0.0359303191129258) (-1.7, 0.0445654627585431) 
  (-1.6, 0.0547992916995581) (-1.5, 0.0668072012688581) 
  (-1.4, 0.0807566592337711) (-1.3, 0.0968004845856104) 
  (-1.2, 0.1150696702217083) (-1.1, 0.1356660609463828) 
  (-1, 0.1586552539314571) (-0.9, 0.1840601253467596) 
  (-0.8, 0.2118553985833967) (-0.7, 0.241963652223073) 
  (-0.6, 0.2742531177500737) (-0.5, 0.3085375387259869) 
  (-0.4, 0.344578258389676) (-0.3, 0.3820885778110474) 
  (-0.2, 0.4207402905608972) (-0.1, 0.4601721627229712) (0, 0.5) 
  (0.1, 0.5398278372770292) (0.2, 0.5792597094391031) 
  (0.3, 0.6179114221889529) (0.4, 0.6554217416103243) 
  (0.5, 0.6914624612740131) (0.6, 0.7257468822499266) 
  (0.7, 0.758036347776927) (0.8, 0.7881446014166035) 
  (0.9, 0.8159398746532406) (1, 0.8413447460685429) 
  (1.1, 0.8643339390536174) (1.2, 0.8849303297782918) 
  (1.3, 0.9031995154143897) (1.4, 0.919243340766229) 
  (1.5, 0.9331927987311419) (1.6, 0.945200708300442) 
  (1.7, 0.955434537241457) (1.8, 0.9640696808870742) 
  (1.9, 0.9712834401839983) (2, 0.9772498680518208) 
  (2.1, 0.9821355794371834) (2.2, 0.9860965524865014) 
  (2.3, 0.9892758899783243) (2.4, 0.991802464075404) 
  (2.5, 0.9937903346742238) (2.6, 0.9953388119762813) 
  (2.7, 0.9965330261969594) (2.8, 0.9974448696695721) 
  (2.9, 0.998134186699616) (3, 0.9986501019683699) 
  (3.1, 0.9990323967867816) (3.2, 0.9993128620620841) 
  (3.3, 0.9995165758576162) (3.4, 0.9996630707343231) 
  (3.5, 0.9997673709209645) (3.6, 0.9998408914098424) 
  (3.7, 0.9998922002665226) (3.8, 0.9999276519560749) 
  (3.9, 0.9999519036559824) (4, 0.9999683287581669) 
  (4.1, 0.9999793424930874) (4.2, 0.9999866542509841) 
  (4.3, 0.999991460094529) (4.4, 0.9999945874560923) 
  (4.5, 0.9999966023268753) (4.6, 0.9999978875452975) 
  (4.7, 0.999998699192546) (4.8, 0.9999992066718481) 
  (4.9, 0.9999995208167234) (5, 0.9999997133484282)
 GC12: cdf_d1_6 = PWL ( d1_6 ) : (-5, 2.86652e-07) (-4.9, 4.79183e-07) 
  (-4.8, 7.93328e-07) (-4.7, 1.30081e-06) (-4.6, 2.11245e-06) 
  (-4.5, 3.39767e-06) (-4.4, 5.41254e-06) (-4.3, 8.53991e-06) 
  (-4.2, 1.33457e-05) (-4.1, 2.06575e-05) (-4, 3.16712e-05) 
  (-3.9, 4.80963e-05) (-3.8, 7.2348e-05) (-3.7, 1.0779973347740945e-04) 
  (-3.6, 1.5910859015755285e-04) (-3.5, 0.000232629) 
  (-3.4, 3.3692926567685522e-04) (-3.3, 4.8342414238378151e-04) 
  (-3.2, 0.000687138) (-3.1, 9.6760321321837095e-04) 
  (-3, 0.0013498980316301) (-2.9, 0.00186581330038404) 
  (-2.8, 0.00255513033042792) (-2.7, 0.00346697380304067) 
  (-2.6, 0.00466118802371873) (-2.5, 0.00620966532577616) 
  (-2.4, 0.00819753592459616) (-2.3, 0.0107241100216758) 
  (-2.2, 0.0139034475134986) (-2.1, 0.0178644205628166) 
  (-2, 0.0227501319481792) (-1.9, 0.0287165598160018) 
  (-1.8, 0.0359303191129258) (-1.7, 0.0445654627585431) 
  (-1.6, 0.0547992916995581) (-1.5, 0.0668072012688581) 
  (-1.4, 0.0807566592337711) (-1.3, 0.0968004845856104) 
  (-1.2, 0.1150696702217083) (-1.1, 0.1356660609463828) 
  (-1, 0.1586552539314571) (-0.9, 0.1840601253467596) 
  (-0.8, 0.2118553985833967) (-0.7, 0.241963652223073) 
  (-0.6, 0.2742531177500737) (-0.5, 0.3085375387259869) 
  (-0.4, 0.344578258389676) (-0.3, 0.3820885778110474) 
  (-0.2, 0.4207402905608972) (-0.1, 0.4601721627229712) (0, 0.5) 
  (0.1, 0.5398278372770292) (0.2, 0.5792597094391031) 
  (0.3, 0.6179114221889529) (0.4, 0.6554217416103243) 
  (0.5, 0.6914624612740131) (0.6, 0.7257468822499266) 
  (0.7, 0.758036347776927) (0.8, 0.7881446014166035) 
  (0.9, 0.8159398746532406) (1, 0.8413447460685429) 
  (1.1, 0.8643339390536174) (1.2, 0.8849303297782918) 
  (1.3, 0.9031995154143897) (1.4, 0.919243340766229) 
  (1.5, 0.9331927987311419) (1.6, 0.945200708300442) 
  (1.7, 0.955434537241457) (1.8, 0.9640696808870742) 
  (1.9, 0.9712834401839983) (2, 0.9772498680518208) 
  (2.1, 0.9821355794371834) (2.2, 0.9860965524865014) 
  (2.3, 0.9892758899783243) (2.4, 0.991802464075404) 
  (2.5, 0.9937903346742238) (2.6, 0.9953388119762813) 
  (2.7, 0.9965330261969594) (2.8, 0.9974448696695721) 
  (2.9, 0.998134186699616) (3, 0.9986501019683699) 
  (3.1, 0.9990323967867816) (3.2, 0.9993128620620841) 
  (3.3, 0.9995165758576162) (3.4, 0.9996630707343231) 
  (3.5, 0.9997673709209645) (3.6, 0.9998408914098424) 
  (3.7, 0.9998922002665226) (3.8, 0.9999276519560749) 
  (3.9, 0.9999519036559824) (4, 0.9999683287581669) 
  (4.1, 0.9999793424930874) (4.2, 0.9999866542509841) 
  (4.3, 0.999991460094529) (4.4, 0.9999945874560923) 
  (4.5, 0.9999966023268753) (4.6, 0.9999978875452975) 
  (4.7, 0.999998699192546) (4.8, 0.9999992066718481) 
  (4.9, 0.9999995208167234) (5, 0.9999997133484282)
 GC13: cdf_d2_6 = PWL ( d2_6 ) : (-5, 2.86652e-07) (-4.9, 4.79183e-07) 
  (-4.8, 7.93328e-07) (-4.7, 1.30081e-06) (-4.6, 2.11245e-06) 
  (-4.5, 3.39767e-06) (-4.4, 5.41254e-06) (-4.3, 8.53991e-06) 
  (-4.2, 1.33457e-05) (-4.1, 2.06575e-05) (-4, 3.16712e-05) 
  (-3.9, 4.80963e-05) (-3.8, 7.2348e-05) (-3.7, 1.0779973347740945e-04) 
  (-3.6, 1.5910859015755285e-04) (-3.5, 0.000232629) 
  (-3.4, 3.3692926567685522e-04) (-3.3, 4.8342414238378151e-04) 
  (-3.2, 0.000687138) (-3.1, 9.6760321321837095e-04) 
  (-3, 0.0013498980316301) (-2.9, 0.00186581330038404) 
  (-2.8, 0.00255513033042792) (-2.7, 0.00346697380304067) 
  (-2.6, 0.00466118802371873) (-2.5, 0.00620966532577616) 
  (-2.4, 0.00819753592459616) (-2.3, 0.0107241100216758) 
  (-2.2, 0.0139034475134986) (-2.1, 0.0178644205628166) 
  (-2, 0.0227501319481792) (-1.9, 0.0287165598160018) 
  (-1.8, 0.0359303191129258) (-1.7, 0.0445654627585431) 
  (-1.6, 0.0547992916995581) (-1.5, 0.0668072012688581) 
  (-1.4, 0.0807566592337711) (-1.3, 0.0968004845856104) 
  (-1.2, 0.1150696702217083) (-1.1, 0.1356660609463828) 
  (-1, 0.1586552539314571) (-0.9, 0.1840601253467596) 
  (-0.8, 0.2118553985833967) (-0.7, 0.241963652223073) 
  (-0.6, 0.2742531177500737) (-0.5, 0.3085375387259869) 
  (-0.4, 0.344578258389676) (-0.3, 0.3820885778110474) 
  (-0.2, 0.4207402905608972) (-0.1, 0.4601721627229712) (0, 0.5) 
  (0.1, 0.5398278372770292) (0.2, 0.5792597094391031) 
  (0.3, 0.6179114221889529) (0.4, 0.6554217416103243) 
  (0.5, 0.6914624612740131) (0.6, 0.7257468822499266) 
  (0.7, 0.758036347776927) (0.8, 0.7881446014166035) 
  (0.9, 0.8159398746532406) (1, 0.8413447460685429) 
  (1.1, 0.8643339390536174) (1.2, 0.8849303297782918) 
  (1.3, 0.9031995154143897) (1.4, 0.919243340766229) 
  (1.5, 0.9331927987311419) (1.6, 0.945200708300442) 
  (1.7, 0.955434537241457) (1.8, 0.9640696808870742) 
  (1.9, 0.9712834401839983) (2, 0.9772498680518208) 
  (2.1, 0.9821355794371834) (2.2, 0.9860965524865014) 
  (2.3, 0.9892758899783243) (2.4, 0.991802464075404) 
  (2.5, 0.9937903346742238) (2.6, 0.9953388119762813) 
  (2.7, 0.9965330261969594) (2.8, 0.9974448696695721) 
  (2.9, 0.998134186699616) (3, 0.9986501019683699) 
  (3.1, 0.9990323967867816) (3.2, 0.9993128620620841) 
  (3.3, 0.9995165758576162) (3.4, 0.9996630707343231) 
  (3.5, 0.9997673709209645) (3.6, 0.9998408914098424) 
  (3.7, 0.9998922002665226) (3.8, 0.9999276519560749) 
  (3.9, 0.9999519036559824) (4, 0.9999683287581669) 
  (4.1, 0.9999793424930874) (4.2, 0.9999866542509841) 
  (4.3, 0.999991460094529) (4.4, 0.9999945874560923) 
  (4.5, 0.9999966023268753) (4.6, 0.9999978875452975) 
  (4.7, 0.999998699192546) (4.8, 0.9999992066718481) 
  (4.9, 0.9999995208167234) (5, 0.9999997133484282)
 GC14: cdf_d1_7 = PWL ( d1_7 ) : (-5, 2.86652e-07) (-4.9, 4.79183e-07) 
  (-4.8, 7.93328e-07) (-4.7, 1.30081e-06) (-4.6, 2.11245e-06) 
  (-4.5, 3.39767e-06) (-4.4, 5.41254e-06) (-4.3, 8.53991e-06) 
  (-4.2, 1.33457e-05) (-4.1, 2.06575e-05) (-4, 3.16712e-05) 
  (-3.9, 4.80963e-05) (-3.8, 7.2348e-05) (-3.7, 1.0779973347740945e-04) 
  (-3.6, 1.5910859015755285e-04) (-3.5, 0.000232629) 
  (-3.4, 3.3692926567685522e-04) (-3.3, 4.8342414238378151e-04) 
  (-3.2, 0.000687138) (-3.1, 9.6760321321837095e-04) 
  (-3, 0.0013498980316301) (-2.9, 0.00186581330038404) 
  (-2.8, 0.00255513033042792) (-2.7, 0.00346697380304067) 
  (-2.6, 0.00466118802371873) (-2.5, 0.00620966532577616) 
  (-2.4, 0.00819753592459616) (-2.3, 0.0107241100216758) 
  (-2.2, 0.0139034475134986) (-2.1, 0.0178644205628166) 
  (-2, 0.0227501319481792) (-1.9, 0.0287165598160018) 
  (-1.8, 0.0359303191129258) (-1.7, 0.0445654627585431) 
  (-1.6, 0.0547992916995581) (-1.5, 0.0668072012688581) 
  (-1.4, 0.0807566592337711) (-1.3, 0.0968004845856104) 
  (-1.2, 0.1150696702217083) (-1.1, 0.1356660609463828) 
  (-1, 0.1586552539314571) (-0.9, 0.1840601253467596) 
  (-0.8, 0.2118553985833967) (-0.7, 0.241963652223073) 
  (-0.6, 0.2742531177500737) (-0.5, 0.3085375387259869) 
  (-0.4, 0.344578258389676) (-0.3, 0.3820885778110474) 
  (-0.2, 0.4207402905608972) (-0.1, 0.4601721627229712) (0, 0.5) 
  (0.1, 0.5398278372770292) (0.2, 0.5792597094391031) 
  (0.3, 0.6179114221889529) (0.4, 0.6554217416103243) 
  (0.5, 0.6914624612740131) (0.6, 0.7257468822499266) 
  (0.7, 0.758036347776927) (0.8, 0.7881446014166035) 
  (0.9, 0.8159398746532406) (1, 0.8413447460685429) 
  (1.1, 0.8643339390536174) (1.2, 0.8849303297782918) 
  (1.3, 0.9031995154143897) (1.4, 0.919243340766229) 
  (1.5, 0.9331927987311419) (1.6, 0.945200708300442) 
  (1.7, 0.955434537241457) (1.8, 0.9640696808870742) 
  (1.9, 0.9712834401839983) (2, 0.9772498680518208) 
  (2.1, 0.9821355794371834) (2.2, 0.9860965524865014) 
  (2.3, 0.9892758899783243) (2.4, 0.991802464075404) 
  (2.5, 0.9937903346742238) (2.6, 0.9953388119762813) 
  (2.7, 0.9965330261969594) (2.8, 0.9974448696695721) 
  (2.9, 0.998134186699616) (3, 0.9986501019683699) 
  (3.1, 0.9990323967867816) (3.2, 0.9993128620620841) 
  (3.3, 0.9995165758576162) (3.4, 0.9996630707343231) 
  (3.5, 0.9997673709209645) (3.6, 0.9998408914098424) 
  (3.7, 0.9998922002665226) (3.8, 0.9999276519560749) 
  (3.9, 0.9999519036559824) (4, 0.9999683287581669) 
  (4.1, 0.9999793424930874) (4.2, 0.9999866542509841) 
  (4.3, 0.999991460094529) (4.4, 0.9999945874560923) 
  (4.5, 0.9999966023268753) (4.6, 0.9999978875452975) 
  (4.7, 0.999998699192546) (4.8, 0.9999992066718481) 
  (4.9, 0.9999995208167234) (5, 0.9999997133484282)
 GC15: cdf_d2_7 = PWL ( d2_7 ) : (-5, 2.86652e-07) (-4.9, 4.79183e-07) 
  (-4.8, 7.93328e-07) (-4.7, 1.30081e-06) (-4.6, 2.11245e-06) 
  (-4.5, 3.39767e-06) (-4.4, 5.41254e-06) (-4.3, 8.53991e-06) 
  (-4.2, 1.33457e-05) (-4.1, 2.06575e-05) (-4, 3.16712e-05) 
  (-3.9, 4.80963e-05) (-3.8, 7.2348e-05) (-3.7, 1.0779973347740945e-04) 
  (-3.6, 1.5910859015755285e-04) (-3.5, 0.000232629) 
  (-3.4, 3.3692926567685522e-04) (-3.3, 4.8342414238378151e-04) 
  (-3.2, 0.000687138) (-3.1, 9.6760321321837095e-04) 
  (-3, 0.0013498980316301) (-2.9, 0.00186581330038404) 
  (-2.8, 0.00255513033042792) (-2.7, 0.00346697380304067) 
  (-2.6, 0.00466118802371873) (-2.5, 0.00620966532577616) 
  (-2.4, 0.00819753592459616) (-2.3, 0.0107241100216758) 
  (-2.2, 0.0139034475134986) (-2.1, 0.0178644205628166) 
  (-2, 0.0227501319481792) (-1.9, 0.0287165598160018) 
  (-1.8, 0.0359303191129258) (-1.7, 0.0445654627585431) 
  (-1.6, 0.0547992916995581) (-1.5, 0.0668072012688581) 
  (-1.4, 0.0807566592337711) (-1.3, 0.0968004845856104) 
  (-1.2, 0.1150696702217083) (-1.1, 0.1356660609463828) 
  (-1, 0.1586552539314571) (-0.9, 0.1840601253467596) 
  (-0.8, 0.2118553985833967) (-0.7, 0.241963652223073) 
  (-0.6, 0.2742531177500737) (-0.5, 0.3085375387259869) 
  (-0.4, 0.344578258389676) (-0.3, 0.3820885778110474) 
  (-0.2, 0.4207402905608972) (-0.1, 0.4601721627229712) (0, 0.5) 
  (0.1, 0.5398278372770292) (0.2, 0.5792597094391031) 
  (0.3, 0.6179114221889529) (0.4, 0.6554217416103243) 
  (0.5, 0.6914624612740131) (0.6, 0.7257468822499266) 
  (0.7, 0.758036347776927) (0.8, 0.7881446014166035) 
  (0.9, 0.8159398746532406) (1, 0.8413447460685429) 
  (1.1, 0.8643339390536174) (1.2, 0.8849303297782918) 
  (1.3, 0.9031995154143897) (1.4, 0.919243340766229) 
  (1.5, 0.9331927987311419) (1.6, 0.945200708300442) 
  (1.7, 0.955434537241457) (1.8, 0.9640696808870742) 
  (1.9, 0.9712834401839983) (2, 0.9772498680518208) 
  (2.1, 0.9821355794371834) (2.2, 0.9860965524865014) 
  (2.3, 0.9892758899783243) (2.4, 0.991802464075404) 
  (2.5, 0.9937903346742238) (2.6, 0.9953388119762813) 
  (2.7, 0.9965330261969594) (2.8, 0.9974448696695721) 
  (2.9, 0.998134186699616) (3, 0.9986501019683699) 
  (3.1, 0.9990323967867816) (3.2, 0.9993128620620841) 
  (3.3, 0.9995165758576162) (3.4, 0.9996630707343231) 
  (3.5, 0.9997673709209645) (3.6, 0.9998408914098424) 
  (3.7, 0.9998922002665226) (3.8, 0.9999276519560749) 
  (3.9, 0.9999519036559824) (4, 0.9999683287581669) 
  (4.1, 0.9999793424930874) (4.2, 0.9999866542509841) 
  (4.3, 0.999991460094529) (4.4, 0.9999945874560923) 
  (4.5, 0.9999966023268753) (4.6, 0.9999978875452975) 
  (4.7, 0.999998699192546) (4.8, 0.9999992066718481) 
  (4.9, 0.9999995208167234) (5, 0.9999997133484282)
 GC16: cdf_d1_8 = PWL ( d1_8 ) : (-5, 2.86652e-07) (-4.9, 4.79183e-07) 
  (-4.8, 7.93328e-07) (-4.7, 1.30081e-06) (-4.6, 2.11245e-06) 
  (-4.5, 3.39767e-06) (-4.4, 5.41254e-06) (-4.3, 8.53991e-06) 
  (-4.2, 1.33457e-05) (-4.1, 2.06575e-05) (-4, 3.16712e-05) 
  (-3.9, 4.80963e-05) (-3.8, 7.2348e-05) (-3.7, 1.0779973347740945e-04) 
  (-3.6, 1.5910859015755285e-04) (-3.5, 0.000232629) 
  (-3.4, 3.3692926567685522e-04) (-3.3, 4.8342414238378151e-04) 
  (-3.2, 0.000687138) (-3.1, 9.6760321321837095e-04) 
  (-3, 0.0013498980316301) (-2.9, 0.00186581330038404) 
  (-2.8, 0.00255513033042792) (-2.7, 0.00346697380304067) 
  (-2.6, 0.00466118802371873) (-2.5, 0.00620966532577616) 
  (-2.4, 0.00819753592459616) (-2.3, 0.0107241100216758) 
  (-2.2, 0.0139034475134986) (-2.1, 0.0178644205628166) 
  (-2, 0.0227501319481792) (-1.9, 0.0287165598160018) 
  (-1.8, 0.0359303191129258) (-1.7, 0.0445654627585431) 
  (-1.6, 0.0547992916995581) (-1.5, 0.0668072012688581) 
  (-1.4, 0.0807566592337711) (-1.3, 0.0968004845856104) 
  (-1.2, 0.1150696702217083) (-1.1, 0.1356660609463828) 
  (-1, 0.1586552539314571) (-0.9, 0.1840601253467596) 
  (-0.8, 0.2118553985833967) (-0.7, 0.241963652223073) 
  (-0.6, 0.2742531177500737) (-0.5, 0.3085375387259869) 
  (-0.4, 0.344578258389676) (-0.3, 0.3820885778110474) 
  (-0.2, 0.4207402905608972) (-0.1, 0.4601721627229712) (0, 0.5) 
  (0.1, 0.5398278372770292) (0.2, 0.5792597094391031) 
  (0.3, 0.6179114221889529) (0.4, 0.6554217416103243) 
  (0.5, 0.6914624612740131) (0.6, 0.7257468822499266) 
  (0.7, 0.758036347776927) (0.8, 0.7881446014166035) 
  (0.9, 0.8159398746532406) (1, 0.8413447460685429) 
  (1.1, 0.8643339390536174) (1.2, 0.8849303297782918) 
  (1.3, 0.9031995154143897) (1.4, 0.919243340766229) 
  (1.5, 0.9331927987311419) (1.6, 0.945200708300442) 
  (1.7, 0.955434537241457) (1.8, 0.9640696808870742) 
  (1.9, 0.9712834401839983) (2, 0.9772498680518208) 
  (2.1, 0.9821355794371834) (2.2, 0.9860965524865014) 
  (2.3, 0.9892758899783243) (2.4, 0.991802464075404) 
  (2.5, 0.9937903346742238) (2.6, 0.9953388119762813) 
  (2.7, 0.9965330261969594) (2.8, 0.9974448696695721) 
  (2.9, 0.998134186699616) (3, 0.9986501019683699) 
  (3.1, 0.9990323967867816) (3.2, 0.9993128620620841) 
  (3.3, 0.9995165758576162) (3.4, 0.9996630707343231) 
  (3.5, 0.9997673709209645) (3.6, 0.9998408914098424) 
  (3.7, 0.9998922002665226) (3.8, 0.9999276519560749) 
  (3.9, 0.9999519036559824) (4, 0.9999683287581669) 
  (4.1, 0.9999793424930874) (4.2, 0.9999866542509841) 
  (4.3, 0.999991460094529) (4.4, 0.9999945874560923) 
  (4.5, 0.9999966023268753) (4.6, 0.9999978875452975) 
  (4.7, 0.999998699192546) (4.8, 0.9999992066718481) 
  (4.9, 0.9999995208167234) (5, 0.9999997133484282)
 GC17: cdf_d2_8 = PWL ( d2_8 ) : (-5, 2.86652e-07) (-4.9, 4.79183e-07) 
  (-4.8, 7.93328e-07) (-4.7, 1.30081e-06) (-4.6, 2.11245e-06) 
  (-4.5, 3.39767e-06) (-4.4, 5.41254e-06) (-4.3, 8.53991e-06) 
  (-4.2, 1.33457e-05) (-4.1, 2.06575e-05) (-4, 3.16712e-05) 
  (-3.9, 4.80963e-05) (-3.8, 7.2348e-05) (-3.7, 1.0779973347740945e-04) 
  (-3.6, 1.5910859015755285e-04) (-3.5, 0.000232629) 
  (-3.4, 3.3692926567685522e-04) (-3.3, 4.8342414238378151e-04) 
  (-3.2, 0.000687138) (-3.1, 9.6760321321837095e-04) 
  (-3, 0.0013498980316301) (-2.9, 0.00186581330038404) 
  (-2.8, 0.00255513033042792) (-2.7, 0.00346697380304067) 
  (-2.6, 0.00466118802371873) (-2.5, 0.00620966532577616) 
  (-2.4, 0.00819753592459616) (-2.3, 0.0107241100216758) 
  (-2.2, 0.0139034475134986) (-2.1, 0.0178644205628166) 
  (-2, 0.0227501319481792) (-1.9, 0.0287165598160018) 
  (-1.8, 0.0359303191129258) (-1.7, 0.0445654627585431) 
  (-1.6, 0.0547992916995581) (-1.5, 0.0668072012688581) 
  (-1.4, 0.0807566592337711) (-1.3, 0.0968004845856104) 
  (-1.2, 0.1150696702217083) (-1.1, 0.1356660609463828) 
  (-1, 0.1586552539314571) (-0.9, 0.1840601253467596) 
  (-0.8, 0.2118553985833967) (-0.7, 0.241963652223073) 
  (-0.6, 0.2742531177500737) (-0.5, 0.3085375387259869) 
  (-0.4, 0.344578258389676) (-0.3, 0.3820885778110474) 
  (-0.2, 0.4207402905608972) (-0.1, 0.4601721627229712) (0, 0.5) 
  (0.1, 0.5398278372770292) (0.2, 0.5792597094391031) 
  (0.3, 0.6179114221889529) (0.4, 0.6554217416103243) 
  (0.5, 0.6914624612740131) (0.6, 0.7257468822499266) 
  (0.7, 0.758036347776927) (0.8, 0.7881446014166035) 
  (0.9, 0.8159398746532406) (1, 0.8413447460685429) 
  (1.1, 0.8643339390536174) (1.2, 0.8849303297782918) 
  (1.3, 0.9031995154143897) (1.4, 0.919243340766229) 
  (1.5, 0.9331927987311419) (1.6, 0.945200708300442) 
  (1.7, 0.955434537241457) (1.8, 0.9640696808870742) 
  (1.9, 0.9712834401839983) (2, 0.9772498680518208) 
  (2.1, 0.9821355794371834) (2.2, 0.9860965524865014) 
  (2.3, 0.9892758899783243) (2.4, 0.991802464075404) 
  (2.5, 0.9937903346742238) (2.6, 0.9953388119762813) 
  (2.7, 0.9965330261969594) (2.8, 0.9974448696695721) 
  (2.9, 0.998134186699616) (3, 0.9986501019683699) 
  (3.1, 0.9990323967867816) (3.2, 0.9993128620620841) 
  (3.3, 0.9995165758576162) (3.4, 0.9996630707343231) 
  (3.5, 0.9997673709209645) (3.6, 0.9998408914098424) 
  (3.7, 0.9998922002665226) (3.8, 0.9999276519560749) 
  (3.9, 0.9999519036559824) (4, 0.9999683287581669) 
  (4.1, 0.9999793424930874) (4.2, 0.9999866542509841) 
  (4.3, 0.999991460094529) (4.4, 0.9999945874560923) 
  (4.5, 0.9999966023268753) (4.6, 0.9999978875452975) 
  (4.7, 0.999998699192546) (4.8, 0.9999992066718481) 
  (4.9, 0.9999995208167234) (5, 0.9999997133484282)
 GC18: cdf_d1_9 = PWL ( d1_9 ) : (-5, 2.86652e-07) (-4.9, 4.79183e-07) 
  (-4.8, 7.93328e-07) (-4.7, 1.30081e-06) (-4.6, 2.11245e-06) 
  (-4.5, 3.39767e-06) (-4.4, 5.41254e-06) (-4.3, 8.53991e-06) 
  (-4.2, 1.33457e-05) (-4.1, 2.06575e-05) (-4, 3.16712e-05) 
  (-3.9, 4.80963e-05) (-3.8, 7.2348e-05) (-3.7, 1.0779973347740945e-04) 
  (-3.6, 1.5910859015755285e-04) (-3.5, 0.000232629) 
  (-3.4, 3.3692926567685522e-04) (-3.3, 4.8342414238378151e-04) 
  (-3.2, 0.000687138) (-3.1, 9.6760321321837095e-04) 
  (-3, 0.0013498980316301) (-2.9, 0.00186581330038404) 
  (-2.8, 0.00255513033042792) (-2.7, 0.00346697380304067) 
  (-2.6, 0.00466118802371873) (-2.5, 0.00620966532577616) 
  (-2.4, 0.00819753592459616) (-2.3, 0.0107241100216758) 
  (-2.2, 0.0139034475134986) (-2.1, 0.0178644205628166) 
  (-2, 0.0227501319481792) (-1.9, 0.0287165598160018) 
  (-1.8, 0.0359303191129258) (-1.7, 0.0445654627585431) 
  (-1.6, 0.0547992916995581) (-1.5, 0.0668072012688581) 
  (-1.4, 0.0807566592337711) (-1.3, 0.0968004845856104) 
  (-1.2, 0.1150696702217083) (-1.1, 0.1356660609463828) 
  (-1, 0.1586552539314571) (-0.9, 0.1840601253467596) 
  (-0.8, 0.2118553985833967) (-0.7, 0.241963652223073) 
  (-0.6, 0.2742531177500737) (-0.5, 0.3085375387259869) 
  (-0.4, 0.344578258389676) (-0.3, 0.3820885778110474) 
  (-0.2, 0.4207402905608972) (-0.1, 0.4601721627229712) (0, 0.5) 
  (0.1, 0.5398278372770292) (0.2, 0.5792597094391031) 
  (0.3, 0.6179114221889529) (0.4, 0.6554217416103243) 
  (0.5, 0.6914624612740131) (0.6, 0.7257468822499266) 
  (0.7, 0.758036347776927) (0.8, 0.7881446014166035) 
  (0.9, 0.8159398746532406) (1, 0.8413447460685429) 
  (1.1, 0.8643339390536174) (1.2, 0.8849303297782918) 
  (1.3, 0.9031995154143897) (1.4, 0.919243340766229) 
  (1.5, 0.9331927987311419) (1.6, 0.945200708300442) 
  (1.7, 0.955434537241457) (1.8, 0.9640696808870742) 
  (1.9, 0.9712834401839983) (2, 0.9772498680518208) 
  (2.1, 0.9821355794371834) (2.2, 0.9860965524865014) 
  (2.3, 0.9892758899783243) (2.4, 0.991802464075404) 
  (2.5, 0.9937903346742238) (2.6, 0.9953388119762813) 
  (2.7, 0.9965330261969594) (2.8, 0.9974448696695721) 
  (2.9, 0.998134186699616) (3, 0.9986501019683699) 
  (3.1, 0.9990323967867816) (3.2, 0.9993128620620841) 
  (3.3, 0.9995165758576162) (3.4, 0.9996630707343231) 
  (3.5, 0.9997673709209645) (3.6, 0.9998408914098424) 
  (3.7, 0.9998922002665226) (3.8, 0.9999276519560749) 
  (3.9, 0.9999519036559824) (4, 0.9999683287581669) 
  (4.1, 0.9999793424930874) (4.2, 0.9999866542509841) 
  (4.3, 0.999991460094529) (4.4, 0.9999945874560923) 
  (4.5, 0.9999966023268753) (4.6, 0.9999978875452975) 
  (4.7, 0.999998699192546) (4.8, 0.9999992066718481) 
  (4.9, 0.9999995208167234) (5, 0.9999997133484282)
 GC19: cdf_d2_9 = PWL ( d2_9 ) : (-5, 2.86652e-07) (-4.9, 4.79183e-07) 
  (-4.8, 7.93328e-07) (-4.7, 1.30081e-06) (-4.6, 2.11245e-06) 
  (-4.5, 3.39767e-06) (-4.4, 5.41254e-06) (-4.3, 8.53991e-06) 
  (-4.2, 1.33457e-05) (-4.1, 2.06575e-05) (-4, 3.16712e-05) 
  (-3.9, 4.80963e-05) (-3.8, 7.2348e-05) (-3.7, 1.0779973347740945e-04) 
  (-3.6, 1.5910859015755285e-04) (-3.5, 0.000232629) 
  (-3.4, 3.3692926567685522e-04) (-3.3, 4.8342414238378151e-04) 
  (-3.2, 0.000687138) (-3.1, 9.6760321321837095e-04) 
  (-3, 0.0013498980316301) (-2.9, 0.00186581330038404) 
  (-2.8, 0.00255513033042792) (-2.7, 0.00346697380304067) 
  (-2.6, 0.00466118802371873) (-2.5, 0.00620966532577616) 
  (-2.4, 0.00819753592459616) (-2.3, 0.0107241100216758) 
  (-2.2, 0.0139034475134986) (-2.1, 0.0178644205628166) 
  (-2, 0.0227501319481792) (-1.9, 0.0287165598160018) 
  (-1.8, 0.0359303191129258) (-1.7, 0.0445654627585431) 
  (-1.6, 0.0547992916995581) (-1.5, 0.0668072012688581) 
  (-1.4, 0.0807566592337711) (-1.3, 0.0968004845856104) 
  (-1.2, 0.1150696702217083) (-1.1, 0.1356660609463828) 
  (-1, 0.1586552539314571) (-0.9, 0.1840601253467596) 
  (-0.8, 0.2118553985833967) (-0.7, 0.241963652223073) 
  (-0.6, 0.2742531177500737) (-0.5, 0.3085375387259869) 
  (-0.4, 0.344578258389676) (-0.3, 0.3820885778110474) 
  (-0.2, 0.4207402905608972) (-0.1, 0.4601721627229712) (0, 0.5) 
  (0.1, 0.5398278372770292) (0.2, 0.5792597094391031) 
  (0.3, 0.6179114221889529) (0.4, 0.6554217416103243) 
  (0.5, 0.6914624612740131) (0.6, 0.7257468822499266) 
  (0.7, 0.758036347776927) (0.8, 0.7881446014166035) 
  (0.9, 0.8159398746532406) (1, 0.8413447460685429) 
  (1.1, 0.8643339390536174) (1.2, 0.8849303297782918) 
  (1.3, 0.9031995154143897) (1.4, 0.919243340766229) 
  (1.5, 0.9331927987311419) (1.6, 0.945200708300442) 
  (1.7, 0.955434537241457) (1.8, 0.9640696808870742) 
  (1.9, 0.9712834401839983) (2, 0.9772498680518208) 
  (2.1, 0.9821355794371834) (2.2, 0.9860965524865014) 
  (2.3, 0.9892758899783243) (2.4, 0.991802464075404) 
  (2.5, 0.9937903346742238) (2.6, 0.9953388119762813) 
  (2.7, 0.9965330261969594) (2.8, 0.9974448696695721) 
  (2.9, 0.998134186699616) (3, 0.9986501019683699) 
  (3.1, 0.9990323967867816) (3.2, 0.9993128620620841) 
  (3.3, 0.9995165758576162) (3.4, 0.9996630707343231) 
  (3.5, 0.9997673709209645) (3.6, 0.9998408914098424) 
  (3.7, 0.9998922002665226) (3.8, 0.9999276519560749) 
  (3.9, 0.9999519036559824) (4, 0.9999683287581669) 
  (4.1, 0.9999793424930874) (4.2, 0.9999866542509841) 
  (4.3, 0.999991460094529) (4.4, 0.9999945874560923) 
  (4.5, 0.9999966023268753) (4.6, 0.9999978875452975) 
  (4.7, 0.999998699192546) (4.8, 0.9999992066718481) 
  (4.9, 0.9999995208167234) (5, 0.9999997133484282)
 GC20: cdf_d1_10 = PWL ( d1_10 ) : (-5, 2.86652e-07) (-4.9, 4.79183e-07) 
  (-4.8, 7.93328e-07) (-4.7, 1.30081e-06) (-4.6, 2.11245e-06) 
  (-4.5, 3.39767e-06) (-4.4, 5.41254e-06) (-4.3, 8.53991e-06) 
  (-4.2, 1.33457e-05) (-4.1, 2.06575e-05) (-4, 3.16712e-05) 
  (-3.9, 4.80963e-05) (-3.8, 7.2348e-05) (-3.7, 1.0779973347740945e-04) 
  (-3.6, 1.5910859015755285e-04) (-3.5, 0.000232629) 
  (-3.4, 3.3692926567685522e-04) (-3.3, 4.8342414238378151e-04) 
  (-3.2, 0.000687138) (-3.1, 9.6760321321837095e-04) 
  (-3, 0.0013498980316301) (-2.9, 0.00186581330038404) 
  (-2.8, 0.00255513033042792) (-2.7, 0.00346697380304067) 
  (-2.6, 0.00466118802371873) (-2.5, 0.00620966532577616) 
  (-2.4, 0.00819753592459616) (-2.3, 0.0107241100216758) 
  (-2.2, 0.0139034475134986) (-2.1, 0.0178644205628166) 
  (-2, 0.0227501319481792) (-1.9, 0.0287165598160018) 
  (-1.8, 0.0359303191129258) (-1.7, 0.0445654627585431) 
  (-1.6, 0.0547992916995581) (-1.5, 0.0668072012688581) 
  (-1.4, 0.0807566592337711) (-1.3, 0.0968004845856104) 
  (-1.2, 0.1150696702217083) (-1.1, 0.1356660609463828) 
  (-1, 0.1586552539314571) (-0.9, 0.1840601253467596) 
  (-0.8, 0.2118553985833967) (-0.7, 0.241963652223073) 
  (-0.6, 0.2742531177500737) (-0.5, 0.3085375387259869) 
  (-0.4, 0.344578258389676) (-0.3, 0.3820885778110474) 
  (-0.2, 0.4207402905608972) (-0.1, 0.4601721627229712) (0, 0.5) 
  (0.1, 0.5398278372770292) (0.2, 0.5792597094391031) 
  (0.3, 0.6179114221889529) (0.4, 0.6554217416103243) 
  (0.5, 0.6914624612740131) (0.6, 0.7257468822499266) 
  (0.7, 0.758036347776927) (0.8, 0.7881446014166035) 
  (0.9, 0.8159398746532406) (1, 0.8413447460685429) 
  (1.1, 0.8643339390536174) (1.2, 0.8849303297782918) 
  (1.3, 0.9031995154143897) (1.4, 0.919243340766229) 
  (1.5, 0.9331927987311419) (1.6, 0.945200708300442) 
  (1.7, 0.955434537241457) (1.8, 0.9640696808870742) 
  (1.9, 0.9712834401839983) (2, 0.9772498680518208) 
  (2.1, 0.9821355794371834) (2.2, 0.9860965524865014) 
  (2.3, 0.9892758899783243) (2.4, 0.991802464075404) 
  (2.5, 0.9937903346742238) (2.6, 0.9953388119762813) 
  (2.7, 0.9965330261969594) (2.8, 0.9974448696695721) 
  (2.9, 0.998134186699616) (3, 0.9986501019683699) 
  (3.1, 0.9990323967867816) (3.2, 0.9993128620620841) 
  (3.3, 0.9995165758576162) (3.4, 0.9996630707343231) 
  (3.5, 0.9997673709209645) (3.6, 0.9998408914098424) 
  (3.7, 0.9998922002665226) (3.8, 0.9999276519560749) 
  (3.9, 0.9999519036559824) (4, 0.9999683287581669) 
  (4.1, 0.9999793424930874) (4.2, 0.9999866542509841) 
  (4.3, 0.999991460094529) (4.4, 0.9999945874560923) 
  (4.5, 0.9999966023268753) (4.6, 0.9999978875452975) 
  (4.7, 0.999998699192546) (4.8, 0.9999992066718481) 
  (4.9, 0.9999995208167234) (5, 0.9999997133484282)
 GC21: cdf_d2_10 = PWL ( d2_10 ) : (-5, 2.86652e-07) (-4.9, 4.79183e-07) 
  (-4.8, 7.93328e-07) (-4.7, 1.30081e-06) (-4.6, 2.11245e-06) 
  (-4.5, 3.39767e-06) (-4.4, 5.41254e-06) (-4.3, 8.53991e-06) 
  (-4.2, 1.33457e-05) (-4.1, 2.06575e-05) (-4, 3.16712e-05) 
  (-3.9, 4.80963e-05) (-3.8, 7.2348e-05) (-3.7, 1.0779973347740945e-04) 
  (-3.6, 1.5910859015755285e-04) (-3.5, 0.000232629) 
  (-3.4, 3.3692926567685522e-04) (-3.3, 4.8342414238378151e-04) 
  (-3.2, 0.000687138) (-3.1, 9.6760321321837095e-04) 
  (-3, 0.0013498980316301) (-2.9, 0.00186581330038404) 
  (-2.8, 0.00255513033042792) (-2.7, 0.00346697380304067) 
  (-2.6, 0.00466118802371873) (-2.5, 0.00620966532577616) 
  (-2.4, 0.00819753592459616) (-2.3, 0.0107241100216758) 
  (-2.2, 0.0139034475134986) (-2.1, 0.0178644205628166) 
  (-2, 0.0227501319481792) (-1.9, 0.0287165598160018) 
  (-1.8, 0.0359303191129258) (-1.7, 0.0445654627585431) 
  (-1.6, 0.0547992916995581) (-1.5, 0.0668072012688581) 
  (-1.4, 0.0807566592337711) (-1.3, 0.0968004845856104) 
  (-1.2, 0.1150696702217083) (-1.1, 0.1356660609463828) 
  (-1, 0.1586552539314571) (-0.9, 0.1840601253467596) 
  (-0.8, 0.2118553985833967) (-0.7, 0.241963652223073) 
  (-0.6, 0.2742531177500737) (-0.5, 0.3085375387259869) 
  (-0.4, 0.344578258389676) (-0.3, 0.3820885778110474) 
  (-0.2, 0.4207402905608972) (-0.1, 0.4601721627229712) (0, 0.5) 
  (0.1, 0.5398278372770292) (0.2, 0.5792597094391031) 
  (0.3, 0.6179114221889529) (0.4, 0.6554217416103243) 
  (0.5, 0.6914624612740131) (0.6, 0.7257468822499266) 
  (0.7, 0.758036347776927) (0.8, 0.7881446014166035) 
  (0.9, 0.8159398746532406) (1, 0.8413447460685429) 
  (1.1, 0.8643339390536174) (1.2, 0.8849303297782918) 
  (1.3, 0.9031995154143897) (1.4, 0.919243340766229) 
  (1.5, 0.9331927987311419) (1.6, 0.945200708300442) 
  (1.7, 0.955434537241457) (1.8, 0.9640696808870742) 
  (1.9, 0.9712834401839983) (2, 0.9772498680518208) 
  (2.1, 0.9821355794371834) (2.2, 0.9860965524865014) 
  (2.3, 0.9892758899783243) (2.4, 0.991802464075404) 
  (2.5, 0.9937903346742238) (2.6, 0.9953388119762813) 
  (2.7, 0.9965330261969594) (2.8, 0.9974448696695721) 
  (2.9, 0.998134186699616) (3, 0.9986501019683699) 
  (3.1, 0.9990323967867816) (3.2, 0.9993128620620841) 
  (3.3, 0.9995165758576162) (3.4, 0.9996630707343231) 
  (3.5, 0.9997673709209645) (3.6, 0.9998408914098424) 
  (3.7, 0.9998922002665226) (3.8, 0.9999276519560749) 
  (3.9, 0.9999519036559824) (4, 0.9999683287581669) 
  (4.1, 0.9999793424930874) (4.2, 0.9999866542509841) 
  (4.3, 0.999991460094529) (4.4, 0.9999945874560923) 
  (4.5, 0.9999966023268753) (4.6, 0.9999978875452975) 
  (4.7, 0.999998699192546) (4.8, 0.9999992066718481) 
  (4.9, 0.9999995208167234) (5, 0.9999997133484282)
\ var_0 = 1.1449196589046652e-01 * ((((1 + (-1 * Delta[0])) * (1 + 
\ ((1.3840830449826991e+00 + (-2.7681660899653981e+00 * Delta[0]) + 
\ (-2.7681660899653981e+00 * Delta[0]) + (5.5363321799307963e+00 * 
\ sqr(Delta[0]))) * Delta[0]))) + (((-1.1764705882352942e+00 * phi_0) + 
\ (2.3529411764705883e+00 * Delta[0] * phi_0)) * (1 + (-2 * Delta[0])))) - 
\ sqr(phi_0))
 var_def_0: var_0 = NL : ( MULTIPLY , -1 , -1 ) 
  ( CONSTANT , 0.1144919658904665 , 0 ) ( MINUS , -1 , 0 ) 
  ( PLUS , -1 , 2 ) ( MULTIPLY , -1 , 3 ) ( PLUS , -1 , 4 ) 
  ( CONSTANT , 1 , 5 ) ( MULTIPLY , -1 , 5 ) ( CONSTANT , -1 , 7 ) 
  ( VARIABLE , Delta[0] , 7 ) ( PLUS , -1 , 4 ) ( CONSTANT , 1 , 10 ) 
  ( MULTIPLY , -1 , 10 ) ( PLUS , -1 , 12 ) 
  ( CONSTANT , 1.384083044982699 , 13 ) ( MULTIPLY , -1 , 13 ) 
  ( CONSTANT , -2.768166089965398 , 15 ) ( VARIABLE , Delta[0] , 15 ) 
  ( MULTIPLY , -1 , 13 ) ( CONSTANT , -2.768166089965398 , 18 ) 
  ( VARIABLE , Delta[0] , 18 ) ( MULTIPLY , -1 , 13 ) 
  ( CONSTANT , 5.536332179930796 , 21 ) ( SQUARE , -1 , 21 ) 
  ( VARIABLE , Delta[0] , 23 ) ( VARIABLE , Delta[0] , 12 ) 
  ( MULTIPLY , -1 , 3 ) ( PLUS , -1 , 26 ) ( MULTIPLY , -1 , 27 ) 
  ( CONSTANT , -1.176470588235294 , 28 ) ( VARIABLE , phi_0 , 28 ) 
  ( MULTIPLY , -1 , 27 ) ( CONSTANT , 2.352941176470588 , 31 ) 
  ( VARIABLE , Delta[0] , 31 ) ( VARIABLE , phi_0 , 31 ) 
  ( PLUS , -1 , 26 ) ( CONSTANT , 1 , 35 ) ( MULTIPLY , -1 , 35 ) 
  ( CONSTANT , -2 , 37 ) ( VARIABLE , Delta[0] , 37 ) ( SQUARE , -1 , 2 ) 
  ( VARIABLE , phi_0 , 40 )
\ var_1 = 4.4882723859946932e-02 * ((((1 + (-1 * Delta[1])) * (1 + 
\ ((1.3840830449826991e+00 + (-2.7681660899653981e+00 * Delta[1]) + 
\ (-2.7681660899653981e+00 * Delta[1]) + (5.5363321799307963e+00 * 
\ sqr(Delta[1]))) * Delta[1]))) + (((-1.1764705882352942e+00 * phi_1) + 
\ (2.3529411764705883e+00 * Delta[1] * phi_1)) * (1 + (-2 * Delta[1])))) - 
\ sqr(phi_1))
 var_def_1: var_1 = NL : ( MULTIPLY , -1 , -1 ) 
  ( CONSTANT , 0.0448827238599469 , 0 ) ( MINUS , -1 , 0 ) 
  ( PLUS , -1 , 2 ) ( MULTIPLY , -1 , 3 ) ( PLUS , -1 , 4 ) 
  ( CONSTANT , 1 , 5 ) ( MULTIPLY , -1 , 5 ) ( CONSTANT , -1 , 7 ) 
  ( VARIABLE , Delta[1] , 7 ) ( PLUS , -1 , 4 ) ( CONSTANT , 1 , 10 ) 
  ( MULTIPLY , -1 , 10 ) ( PLUS , -1 , 12 ) 
  ( CONSTANT , 1.384083044982699 , 13 ) ( MULTIPLY , -1 , 13 ) 
  ( CONSTANT , -2.768166089965398 , 15 ) ( VARIABLE , Delta[1] , 15 ) 
  ( MULTIPLY , -1 , 13 ) ( CONSTANT , -2.768166089965398 , 18 ) 
  ( VARIABLE , Delta[1] , 18 ) ( MULTIPLY , -1 , 13 ) 
  ( CONSTANT , 5.536332179930796 , 21 ) ( SQUARE , -1 , 21 ) 
  ( VARIABLE , Delta[1] , 23 ) ( VARIABLE , Delta[1] , 12 ) 
  ( MULTIPLY , -1 , 3 ) ( PLUS , -1 , 26 ) ( MULTIPLY , -1 , 27 ) 
  ( CONSTANT , -1.176470588235294 , 28 ) ( VARIABLE , phi_1 , 28 ) 
  ( MULTIPLY , -1 , 27 ) ( CONSTANT , 2.352941176470588 , 31 ) 
  ( VARIABLE , Delta[1] , 31 ) ( VARIABLE , phi_1 , 31 ) 
  ( PLUS , -1 , 26 ) ( CONSTANT , 1 , 35 ) ( MULTIPLY , -1 , 35 ) 
  ( CONSTANT , -2 , 37 ) ( VARIABLE , Delta[1] , 37 ) ( SQUARE , -1 , 2 ) 
  ( VARIABLE , phi_1 , 40 )
\ var_2 = 2.4046897963454404e-02 * ((((1 + (-1 * Delta[2])) * (1 + 
\ ((1.3840830449826991e+00 + (-2.7681660899653981e+00 * Delta[2]) + 
\ (-2.7681660899653981e+00 * Delta[2]) + (5.5363321799307963e+00 * 
\ sqr(Delta[2]))) * Delta[2]))) + (((-1.1764705882352942e+00 * phi_2) + 
\ (2.3529411764705883e+00 * Delta[2] * phi_2)) * (1 + (-2 * Delta[2])))) - 
\ sqr(phi_2))
 var_def_2: var_2 = NL : ( MULTIPLY , -1 , -1 ) 
  ( CONSTANT , 0.0240468979634544 , 0 ) ( MINUS , -1 , 0 ) 
  ( PLUS , -1 , 2 ) ( MULTIPLY , -1 , 3 ) ( PLUS , -1 , 4 ) 
  ( CONSTANT , 1 , 5 ) ( MULTIPLY , -1 , 5 ) ( CONSTANT , -1 , 7 ) 
  ( VARIABLE , Delta[2] , 7 ) ( PLUS , -1 , 4 ) ( CONSTANT , 1 , 10 ) 
  ( MULTIPLY , -1 , 10 ) ( PLUS , -1 , 12 ) 
  ( CONSTANT , 1.384083044982699 , 13 ) ( MULTIPLY , -1 , 13 ) 
  ( CONSTANT , -2.768166089965398 , 15 ) ( VARIABLE , Delta[2] , 15 ) 
  ( MULTIPLY , -1 , 13 ) ( CONSTANT , -2.768166089965398 , 18 ) 
  ( VARIABLE , Delta[2] , 18 ) ( MULTIPLY , -1 , 13 ) 
  ( CONSTANT , 5.536332179930796 , 21 ) ( SQUARE , -1 , 21 ) 
  ( VARIABLE , Delta[2] , 23 ) ( VARIABLE , Delta[2] , 12 ) 
  ( MULTIPLY , -1 , 3 ) ( PLUS , -1 , 26 ) ( MULTIPLY , -1 , 27 ) 
  ( CONSTANT , -1.176470588235294 , 28 ) ( VARIABLE , phi_2 , 28 ) 
  ( MULTIPLY , -1 , 27 ) ( CONSTANT , 2.352941176470588 , 31 ) 
  ( VARIABLE , Delta[2] , 31 ) ( VARIABLE , phi_2 , 31 ) 
  ( PLUS , -1 , 26 ) ( CONSTANT , 1 , 35 ) ( MULTIPLY , -1 , 35 ) 
  ( CONSTANT , -2 , 37 ) ( VARIABLE , Delta[2] , 37 ) ( SQUARE , -1 , 2 ) 
  ( VARIABLE , phi_2 , 40 )
\ var_3 = 1.9298575946799054e-02 * ((((1 + (-1 * Delta[3])) * (1 + 
\ ((1.3840830449826991e+00 + (-2.7681660899653981e+00 * Delta[3]) + 
\ (-2.7681660899653981e+00 * Delta[3]) + (5.5363321799307963e+00 * 
\ sqr(Delta[3]))) * Delta[3]))) + (((-1.1764705882352942e+00 * phi_3) + 
\ (2.3529411764705883e+00 * Delta[3] * phi_3)) * (1 + (-2 * Delta[3])))) - 
\ sqr(phi_3))
 var_def_3: var_3 = NL : ( MULTIPLY , -1 , -1 ) 
  ( CONSTANT , 0.0192985759467991 , 0 ) ( MINUS , -1 , 0 ) 
  ( PLUS , -1 , 2 ) ( MULTIPLY , -1 , 3 ) ( PLUS , -1 , 4 ) 
  ( CONSTANT , 1 , 5 ) ( MULTIPLY , -1 , 5 ) ( CONSTANT , -1 , 7 ) 
  ( VARIABLE , Delta[3] , 7 ) ( PLUS , -1 , 4 ) ( CONSTANT , 1 , 10 ) 
  ( MULTIPLY , -1 , 10 ) ( PLUS , -1 , 12 ) 
  ( CONSTANT , 1.384083044982699 , 13 ) ( MULTIPLY , -1 , 13 ) 
  ( CONSTANT , -2.768166089965398 , 15 ) ( VARIABLE , Delta[3] , 15 ) 
  ( MULTIPLY , -1 , 13 ) ( CONSTANT , -2.768166089965398 , 18 ) 
  ( VARIABLE , Delta[3] , 18 ) ( MULTIPLY , -1 , 13 ) 
  ( CONSTANT , 5.536332179930796 , 21 ) ( SQUARE , -1 , 21 ) 
  ( VARIABLE , Delta[3] , 23 ) ( VARIABLE , Delta[3] , 12 ) 
  ( MULTIPLY , -1 , 3 ) ( PLUS , -1 , 26 ) ( MULTIPLY , -1 , 27 ) 
  ( CONSTANT , -1.176470588235294 , 28 ) ( VARIABLE , phi_3 , 28 ) 
  ( MULTIPLY , -1 , 27 ) ( CONSTANT , 2.352941176470588 , 31 ) 
  ( VARIABLE , Delta[3] , 31 ) ( VARIABLE , phi_3 , 31 ) 
  ( PLUS , -1 , 26 ) ( CONSTANT , 1 , 35 ) ( MULTIPLY , -1 , 35 ) 
  ( CONSTANT , -2 , 37 ) ( VARIABLE , Delta[3] , 37 ) ( SQUARE , -1 , 2 ) 
  ( VARIABLE , phi_3 , 40 )
\ var_4 = 6.6187034028923151e-03 * ((((1 + (-1 * Delta[4])) * (1 + 
\ ((1.3840830449826991e+00 + (-2.7681660899653981e+00 * Delta[4]) + 
\ (-2.7681660899653981e+00 * Delta[4]) + (5.5363321799307963e+00 * 
\ sqr(Delta[4]))) * Delta[4]))) + (((-1.1764705882352942e+00 * phi_4) + 
\ (2.3529411764705883e+00 * Delta[4] * phi_4)) * (1 + (-2 * Delta[4])))) - 
\ sqr(phi_4))
 var_def_4: var_4 = NL : ( MULTIPLY , -1 , -1 ) 
  ( CONSTANT , 0.00661870340289232 , 0 ) ( MINUS , -1 , 0 ) 
  ( PLUS , -1 , 2 ) ( MULTIPLY , -1 , 3 ) ( PLUS , -1 , 4 ) 
  ( CONSTANT , 1 , 5 ) ( MULTIPLY , -1 , 5 ) ( CONSTANT , -1 , 7 ) 
  ( VARIABLE , Delta[4] , 7 ) ( PLUS , -1 , 4 ) ( CONSTANT , 1 , 10 ) 
  ( MULTIPLY , -1 , 10 ) ( PLUS , -1 , 12 ) 
  ( CONSTANT , 1.384083044982699 , 13 ) ( MULTIPLY , -1 , 13 ) 
  ( CONSTANT , -2.768166089965398 , 15 ) ( VARIABLE , Delta[4] , 15 ) 
  ( MULTIPLY , -1 , 13 ) ( CONSTANT , -2.768166089965398 , 18 ) 
  ( VARIABLE , Delta[4] , 18 ) ( MULTIPLY , -1 , 13 ) 
  ( CONSTANT , 5.536332179930796 , 21 ) ( SQUARE , -1 , 21 ) 
  ( VARIABLE , Delta[4] , 23 ) ( VARIABLE , Delta[4] , 12 ) 
  ( MULTIPLY , -1 , 3 ) ( PLUS , -1 , 26 ) ( MULTIPLY , -1 , 27 ) 
  ( CONSTANT , -1.176470588235294 , 28 ) ( VARIABLE , phi_4 , 28 ) 
  ( MULTIPLY , -1 , 27 ) ( CONSTANT , 2.352941176470588 , 31 ) 
  ( VARIABLE , Delta[4] , 31 ) ( VARIABLE , phi_4 , 31 ) 
  ( PLUS , -1 , 26 ) ( CONSTANT , 1 , 35 ) ( MULTIPLY , -1 , 35 ) 
  ( CONSTANT , -2 , 37 ) ( VARIABLE , Delta[4] , 37 ) ( SQUARE , -1 , 2 ) 
  ( VARIABLE , phi_4 , 40 )
\ var_5 = 2.3747729712319397e-02 * ((((1 + (-1 * Delta[5])) * (1 + 
\ ((1.3840830449826991e+00 + (-2.7681660899653981e+00 * Delta[5]) + 
\ (-2.7681660899653981e+00 * Delta[5]) + (5.5363321799307963e+00 * 
\ sqr(Delta[5]))) * Delta[5]))) + (((-1.1764705882352942e+00 * phi_5) + 
\ (2.3529411764705883e+00 * Delta[5] * phi_5)) * (1 + (-2 * Delta[5])))) - 
\ sqr(phi_5))
 var_def_5: var_5 = NL : ( MULTIPLY , -1 , -1 ) 
  ( CONSTANT , 0.0237477297123194 , 0 ) ( MINUS , -1 , 0 ) 
  ( PLUS , -1 , 2 ) ( MULTIPLY , -1 , 3 ) ( PLUS , -1 , 4 ) 
  ( CONSTANT , 1 , 5 ) ( MULTIPLY , -1 , 5 ) ( CONSTANT , -1 , 7 ) 
  ( VARIABLE , Delta[5] , 7 ) ( PLUS , -1 , 4 ) ( CONSTANT , 1 , 10 ) 
  ( MULTIPLY , -1 , 10 ) ( PLUS , -1 , 12 ) 
  ( CONSTANT , 1.384083044982699 , 13 ) ( MULTIPLY , -1 , 13 ) 
  ( CONSTANT , -2.768166089965398 , 15 ) ( VARIABLE , Delta[5] , 15 ) 
  ( MULTIPLY , -1 , 13 ) ( CONSTANT , -2.768166089965398 , 18 ) 
  ( VARIABLE , Delta[5] , 18 ) ( MULTIPLY , -1 , 13 ) 
  ( CONSTANT , 5.536332179930796 , 21 ) ( SQUARE , -1 , 21 ) 
  ( VARIABLE , Delta[5] , 23 ) ( VARIABLE , Delta[5] , 12 ) 
  ( MULTIPLY , -1 , 3 ) ( PLUS , -1 , 26 ) ( MULTIPLY , -1 , 27 ) 
  ( CONSTANT , -1.176470588235294 , 28 ) ( VARIABLE , phi_5 , 28 ) 
  ( MULTIPLY , -1 , 27 ) ( CONSTANT , 2.352941176470588 , 31 ) 
  ( VARIABLE , Delta[5] , 31 ) ( VARIABLE , phi_5 , 31 ) 
  ( PLUS , -1 , 26 ) ( CONSTANT , 1 , 35 ) ( MULTIPLY , -1 , 35 ) 
  ( CONSTANT , -2 , 37 ) ( VARIABLE , Delta[5] , 37 ) ( SQUARE , -1 , 2 ) 
  ( VARIABLE , phi_5 , 40 )
\ var_6 = 1.3245521009669255e-02 * ((((1 + (-1 * Delta[6])) * (1 + 
\ ((1.3840830449826991e+00 + (-2.7681660899653981e+00 * Delta[6]) + 
\ (-2.7681660899653981e+00 * Delta[6]) + (5.5363321799307963e+00 * 
\ sqr(Delta[6]))) * Delta[6]))) + (((-1.1764705882352942e+00 * phi_6) + 
\ (2.3529411764705883e+00 * Delta[6] * phi_6)) * (1 + (-2 * Delta[6])))) - 
\ sqr(phi_6))
 var_def_6: var_6 = NL : ( MULTIPLY , -1 , -1 ) 
  ( CONSTANT , 0.0132455210096693 , 0 ) ( MINUS , -1 , 0 ) 
  ( PLUS , -1 , 2 ) ( MULTIPLY , -1 , 3 ) ( PLUS , -1 , 4 ) 
  ( CONSTANT , 1 , 5 ) ( MULTIPLY , -1 , 5 ) ( CONSTANT , -1 , 7 ) 
  ( VARIABLE , Delta[6] , 7 ) ( PLUS , -1 , 4 ) ( CONSTANT , 1 , 10 ) 
  ( MULTIPLY , -1 , 10 ) ( PLUS , -1 , 12 ) 
  ( CONSTANT , 1.384083044982699 , 13 ) ( MULTIPLY , -1 , 13 ) 
  ( CONSTANT , -2.768166089965398 , 15 ) ( VARIABLE , Delta[6] , 15 ) 
  ( MULTIPLY , -1 , 13 ) ( CONSTANT , -2.768166089965398 , 18 ) 
  ( VARIABLE , Delta[6] , 18 ) ( MULTIPLY , -1 , 13 ) 
  ( CONSTANT , 5.536332179930796 , 21 ) ( SQUARE , -1 , 21 ) 
  ( VARIABLE , Delta[6] , 23 ) ( VARIABLE , Delta[6] , 12 ) 
  ( MULTIPLY , -1 , 3 ) ( PLUS , -1 , 26 ) ( MULTIPLY , -1 , 27 ) 
  ( CONSTANT , -1.176470588235294 , 28 ) ( VARIABLE , phi_6 , 28 ) 
  ( MULTIPLY , -1 , 27 ) ( CONSTANT , 2.352941176470588 , 31 ) 
  ( VARIABLE , Delta[6] , 31 ) ( VARIABLE , phi_6 , 31 ) 
  ( PLUS , -1 , 26 ) ( CONSTANT , 1 , 35 ) ( MULTIPLY , -1 , 35 ) 
  ( CONSTANT , -2 , 37 ) ( VARIABLE , Delta[6] , 37 ) ( SQUARE , -1 , 2 ) 
  ( VARIABLE , phi_6 , 40 )
\ var_7 = 1.1221767593410372e-02 * ((((1 + (-1 * Delta[7])) * (1 + 
\ ((1.3840830449826991e+00 + (-2.7681660899653981e+00 * Delta[7]) + 
\ (-2.7681660899653981e+00 * Delta[7]) + (5.5363321799307963e+00 * 
\ sqr(Delta[7]))) * Delta[7]))) + (((-1.1764705882352942e+00 * phi_7) + 
\ (2.3529411764705883e+00 * Delta[7] * phi_7)) * (1 + (-2 * Delta[7])))) - 
\ sqr(phi_7))
 var_def_7: var_7 = NL : ( MULTIPLY , -1 , -1 ) 
  ( CONSTANT , 0.0112217675934104 , 0 ) ( MINUS , -1 , 0 ) 
  ( PLUS , -1 , 2 ) ( MULTIPLY , -1 , 3 ) ( PLUS , -1 , 4 ) 
  ( CONSTANT , 1 , 5 ) ( MULTIPLY , -1 , 5 ) ( CONSTANT , -1 , 7 ) 
  ( VARIABLE , Delta[7] , 7 ) ( PLUS , -1 , 4 ) ( CONSTANT , 1 , 10 ) 
  ( MULTIPLY , -1 , 10 ) ( PLUS , -1 , 12 ) 
  ( CONSTANT , 1.384083044982699 , 13 ) ( MULTIPLY , -1 , 13 ) 
  ( CONSTANT , -2.768166089965398 , 15 ) ( VARIABLE , Delta[7] , 15 ) 
  ( MULTIPLY , -1 , 13 ) ( CONSTANT , -2.768166089965398 , 18 ) 
  ( VARIABLE , Delta[7] , 18 ) ( MULTIPLY , -1 , 13 ) 
  ( CONSTANT , 5.536332179930796 , 21 ) ( SQUARE , -1 , 21 ) 
  ( VARIABLE , Delta[7] , 23 ) ( VARIABLE , Delta[7] , 12 ) 
  ( MULTIPLY , -1 , 3 ) ( PLUS , -1 , 26 ) ( MULTIPLY , -1 , 27 ) 
  ( CONSTANT , -1.176470588235294 , 28 ) ( VARIABLE , phi_7 , 28 ) 
  ( MULTIPLY , -1 , 27 ) ( CONSTANT , 2.352941176470588 , 31 ) 
  ( VARIABLE , Delta[7] , 31 ) ( VARIABLE , phi_7 , 31 ) 
  ( PLUS , -1 , 26 ) ( CONSTANT , 1 , 35 ) ( MULTIPLY , -1 , 35 ) 
  ( CONSTANT , -2 , 37 ) ( VARIABLE , Delta[7] , 37 ) ( SQUARE , -1 , 2 ) 
  ( VARIABLE , phi_7 , 40 )
\ var_8 = 7.1212776003189530e-03 * ((((1 + (-1 * Delta[8])) * (1 + 
\ ((1.3840830449826991e+00 + (-2.7681660899653981e+00 * Delta[8]) + 
\ (-2.7681660899653981e+00 * Delta[8]) + (5.5363321799307963e+00 * 
\ sqr(Delta[8]))) * Delta[8]))) + (((-1.1764705882352942e+00 * phi_8) + 
\ (2.3529411764705883e+00 * Delta[8] * phi_8)) * (1 + (-2 * Delta[8])))) - 
\ sqr(phi_8))
 var_def_8: var_8 = NL : ( MULTIPLY , -1 , -1 ) 
  ( CONSTANT , 0.00712127760031895 , 0 ) ( MINUS , -1 , 0 ) 
  ( PLUS , -1 , 2 ) ( MULTIPLY , -1 , 3 ) ( PLUS , -1 , 4 ) 
  ( CONSTANT , 1 , 5 ) ( MULTIPLY , -1 , 5 ) ( CONSTANT , -1 , 7 ) 
  ( VARIABLE , Delta[8] , 7 ) ( PLUS , -1 , 4 ) ( CONSTANT , 1 , 10 ) 
  ( MULTIPLY , -1 , 10 ) ( PLUS , -1 , 12 ) 
  ( CONSTANT , 1.384083044982699 , 13 ) ( MULTIPLY , -1 , 13 ) 
  ( CONSTANT , -2.768166089965398 , 15 ) ( VARIABLE , Delta[8] , 15 ) 
  ( MULTIPLY , -1 , 13 ) ( CONSTANT , -2.768166089965398 , 18 ) 
  ( VARIABLE , Delta[8] , 18 ) ( MULTIPLY , -1 , 13 ) 
  ( CONSTANT , 5.536332179930796 , 21 ) ( SQUARE , -1 , 21 ) 
  ( VARIABLE , Delta[8] , 23 ) ( VARIABLE , Delta[8] , 12 ) 
  ( MULTIPLY , -1 , 3 ) ( PLUS , -1 , 26 ) ( MULTIPLY , -1 , 27 ) 
  ( CONSTANT , -1.176470588235294 , 28 ) ( VARIABLE , phi_8 , 28 ) 
  ( MULTIPLY , -1 , 27 ) ( CONSTANT , 2.352941176470588 , 31 ) 
  ( VARIABLE , Delta[8] , 31 ) ( VARIABLE , phi_8 , 31 ) 
  ( PLUS , -1 , 26 ) ( CONSTANT , 1 , 35 ) ( MULTIPLY , -1 , 35 ) 
  ( CONSTANT , -2 , 37 ) ( VARIABLE , Delta[8] , 37 ) ( SQUARE , -1 , 2 ) 
  ( VARIABLE , phi_8 , 40 )
\ var_9 = 1.2212499901959811e-02 * ((((1 + (-1 * Delta[9])) * (1 + 
\ ((1.3840830449826991e+00 + (-2.7681660899653981e+00 * Delta[9]) + 
\ (-2.7681660899653981e+00 * Delta[9]) + (5.5363321799307963e+00 * 
\ sqr(Delta[9]))) * Delta[9]))) + (((-1.1764705882352942e+00 * phi_9) + 
\ (2.3529411764705883e+00 * Delta[9] * phi_9)) * (1 + (-2 * Delta[9])))) - 
\ sqr(phi_9))
 var_def_9: var_9 = NL : ( MULTIPLY , -1 , -1 ) 
  ( CONSTANT , 0.0122125 , 0 ) ( MINUS , -1 , 0 ) ( PLUS , -1 , 2 ) 
  ( MULTIPLY , -1 , 3 ) ( PLUS , -1 , 4 ) ( CONSTANT , 1 , 5 ) 
  ( MULTIPLY , -1 , 5 ) ( CONSTANT , -1 , 7 ) ( VARIABLE , Delta[9] , 7 ) 
  ( PLUS , -1 , 4 ) ( CONSTANT , 1 , 10 ) ( MULTIPLY , -1 , 10 ) 
  ( PLUS , -1 , 12 ) ( CONSTANT , 1.384083044982699 , 13 ) 
  ( MULTIPLY , -1 , 13 ) ( CONSTANT , -2.768166089965398 , 15 ) 
  ( VARIABLE , Delta[9] , 15 ) ( MULTIPLY , -1 , 13 ) 
  ( CONSTANT , -2.768166089965398 , 18 ) ( VARIABLE , Delta[9] , 18 ) 
  ( MULTIPLY , -1 , 13 ) ( CONSTANT , 5.536332179930796 , 21 ) 
  ( SQUARE , -1 , 21 ) ( VARIABLE , Delta[9] , 23 ) 
  ( VARIABLE , Delta[9] , 12 ) ( MULTIPLY , -1 , 3 ) ( PLUS , -1 , 26 ) 
  ( MULTIPLY , -1 , 27 ) ( CONSTANT , -1.176470588235294 , 28 ) 
  ( VARIABLE , phi_9 , 28 ) ( MULTIPLY , -1 , 27 ) 
  ( CONSTANT , 2.352941176470588 , 31 ) ( VARIABLE , Delta[9] , 31 ) 
  ( VARIABLE , phi_9 , 31 ) ( PLUS , -1 , 26 ) ( CONSTANT , 1 , 35 ) 
  ( MULTIPLY , -1 , 35 ) ( CONSTANT , -2 , 37 ) 
  ( VARIABLE , Delta[9] , 37 ) ( SQUARE , -1 , 2 ) 
  ( VARIABLE , phi_9 , 40 )
\ var_10 = 5.4934763759937222e-02 * ((((1 + (-1 * Delta[10])) * (1 + 
\ ((1.3840830449826991e+00 + (-2.7681660899653981e+00 * Delta[10]) + 
\ (-2.7681660899653981e+00 * Delta[10]) + (5.5363321799307963e+00 * 
\ sqr(Delta[10]))) * Delta[10]))) + (((-1.1764705882352942e+00 * phi_10) + 
\ (2.3529411764705883e+00 * Delta[10] * phi_10)) * (1 + (-2 * 
\ Delta[10])))) - sqr(phi_10))
 var_def_10: var_10 = NL : ( MULTIPLY , -1 , -1 ) 
  ( CONSTANT , 0.0549347637599372 , 0 ) ( MINUS , -1 , 0 ) 
  ( PLUS , -1 , 2 ) ( MULTIPLY , -1 , 3 ) ( PLUS , -1 , 4 ) 
  ( CONSTANT , 1 , 5 ) ( MULTIPLY , -1 , 5 ) ( CONSTANT , -1 , 7 ) 
  ( VARIABLE , Delta[10] , 7 ) ( PLUS , -1 , 4 ) ( CONSTANT , 1 , 10 ) 
  ( MULTIPLY , -1 , 10 ) ( PLUS , -1 , 12 ) 
  ( CONSTANT , 1.384083044982699 , 13 ) ( MULTIPLY , -1 , 13 ) 
  ( CONSTANT , -2.768166089965398 , 15 ) ( VARIABLE , Delta[10] , 15 ) 
  ( MULTIPLY , -1 , 13 ) ( CONSTANT , -2.768166089965398 , 18 ) 
  ( VARIABLE , Delta[10] , 18 ) ( MULTIPLY , -1 , 13 ) 
  ( CONSTANT , 5.536332179930796 , 21 ) ( SQUARE , -1 , 21 ) 
  ( VARIABLE , Delta[10] , 23 ) ( VARIABLE , Delta[10] , 12 ) 
  ( MULTIPLY , -1 , 3 ) ( PLUS , -1 , 26 ) ( MULTIPLY , -1 , 27 ) 
  ( CONSTANT , -1.176470588235294 , 28 ) ( VARIABLE , phi_10 , 28 ) 
  ( MULTIPLY , -1 , 27 ) ( CONSTANT , 2.352941176470588 , 31 ) 
  ( VARIABLE , Delta[10] , 31 ) ( VARIABLE , phi_10 , 31 ) 
  ( PLUS , -1 , 26 ) ( CONSTANT , 1 , 35 ) ( MULTIPLY , -1 , 35 ) 
  ( CONSTANT , -2 , 37 ) ( VARIABLE , Delta[10] , 37 ) ( SQUARE , -1 , 2 ) 
  ( VARIABLE , phi_10 , 40 )
\ C167 = (((((((((((+() + (var_0 * sqr(weight[0]))) + (var_1 * 
\ sqr(weight[1]))) + (var_2 * sqr(weight[2]))) + (var_3 * sqr(weight[3]))) 
\ + (var_4 * sqr(weight[4]))) + (var_5 * sqr(weight[5]))) + (var_6 * 
\ sqr(weight[6]))) + (var_7 * sqr(weight[7]))) + (var_8 * sqr(weight[8]))) 
\ + (var_9 * sqr(weight[9]))) + (var_10 * sqr(weight[10]))) + (2 * 
\ (((((((((((((((((((((((((((((((((((((((((((((((((((((((+() + ((weight[0] 
\ * covar_0_1) * weight[1])) + ((weight[0] * covar_0_2) * weight[2])) + 
\ ((weight[0] * covar_0_3) * weight[3])) + ((weight[0] * covar_0_4) * 
\ weight[4])) + ((weight[0] * covar_0_5) * weight[5])) + ((weight[0] * 
\ covar_0_6) * weight[6])) + ((weight[0] * covar_0_7) * weight[7])) + 
\ ((weight[0] * covar_0_8) * weight[8])) + ((weight[0] * covar_0_9) * 
\ weight[9])) + ((weight[0] * covar_0_10) * weight[10])) + ((weight[1] * 
\ covar_1_2) * weight[2])) + ((weight[1] * covar_1_3) * weight[3])) + 
\ ((weight[1] * covar_1_4) * weight[4])) + ((weight[1] * covar_1_5) * 
\ weight[5])) + ((weight[1] * covar_1_6) * weight[6])) + ((weight[1] * 
\ covar_1_7) * weight[7])) + ((weight[1] * covar_1_8) * weight[8])) + 
\ ((weight[1] * covar_1_9) * weight[9])) + ((weight[1] * covar_1_10) * 
\ weight[10])) + ((weight[2] * covar_2_3) * weight[3])) + ((weight[2] * 
\ covar_2_4) * weight[4])) + ((weight[2] * covar_2_5) * weight[5])) + 
\ ((weight[2] * covar_2_6) * weight[6])) + ((weight[2] * covar_2_7) * 
\ weight[7])) + ((weight[2] * covar_2_8) * weight[8])) + ((weight[2] * 
\ covar_2_9) * weight[9])) + ((weight[2] * covar_2_10) * weight[10])) + 
\ ((weight[3] * covar_3_4) * weight[4])) + ((weight[3] * covar_3_5) * 
\ weight[5])) + ((weight[3] * covar_3_6) * weight[6])) + ((weight[3] * 
\ covar_3_7) * weight[7])) + ((weight[3] * covar_3_8) * weight[8])) + 
\ ((weight[3] * covar_3_9) * weight[9])) + ((weight[3] * covar_3_10) * 
\ weight[10])) + ((weight[4] * covar_4_5) * weight[5])) + ((weight[4] * 
\ covar_4_6) * weight[6])) + ((weight[4] * covar_4_7) * weight[7])) + 
\ ((weight[4] * covar_4_8) * weight[8])) + ((weight[4] * covar_4_9) * 
\ weight[9])) + ((weight[4] * covar_4_10) * weight[10])) + ((weight[5] * 
\ covar_5_6) * weight[6])) + ((weight[5] * covar_5_7) * weight[7])) + 
\ ((weight[5] * covar_5_8) * weight[8])) + ((weight[5] * covar_5_9) * 
\ weight[9])) + ((weight[5] * covar_5_10) * weight[10])) + ((weight[6] * 
\ covar_6_7) * weight[7])) + ((weight[6] * covar_6_8) * weight[8])) + 
\ ((weight[6] * covar_6_9) * weight[9])) + ((weight[6] * covar_6_10) * 
\ weight[10])) + ((weight[7] * covar_7_8) * weight[8])) + ((weight[7] * 
\ covar_7_9) * weight[9])) + ((weight[7] * covar_7_10) * weight[10])) + 
\ ((weight[8] * covar_8_9) * weight[9])) + ((weight[8] * covar_8_10) * 
\ weight[10])) + ((weight[9] * covar_9_10) * weight[10])))
 GC33: C167 = NL : ( PLUS , -1 , -1 ) ( PLUS , -1 , 0 ) ( PLUS , -1 , 1 ) 
  ( PLUS , -1 , 2 ) ( PLUS , -1 , 3 ) ( PLUS , -1 , 4 ) ( PLUS , -1 , 5 ) 
  ( PLUS , -1 , 6 ) ( PLUS , -1 , 7 ) ( PLUS , -1 , 8 ) ( PLUS , -1 , 9 ) 
  ( PLUS , -1 , 10 ) ( PLUS , -1 , 11 ) ( MULTIPLY , -1 , 11 ) 
  ( VARIABLE , var_0 , 13 ) ( SQUARE , -1 , 13 ) 
  ( VARIABLE , weight[0] , 15 ) ( MULTIPLY , -1 , 10 ) 
  ( VARIABLE , var_1 , 17 ) ( SQUARE , -1 , 17 ) 
  ( VARIABLE , weight[1] , 19 ) ( MULTIPLY , -1 , 9 ) 
  ( VARIABLE , var_2 , 21 ) ( SQUARE , -1 , 21 ) 
  ( VARIABLE , weight[2] , 23 ) ( MULTIPLY , -1 , 8 ) 
  ( VARIABLE , var_3 , 25 ) ( SQUARE , -1 , 25 ) 
  ( VARIABLE , weight[3] , 27 ) ( MULTIPLY , -1 , 7 ) 
  ( VARIABLE , var_4 , 29 ) ( SQUARE , -1 , 29 ) 
  ( VARIABLE , weight[4] , 31 ) ( MULTIPLY , -1 , 6 ) 
  ( VARIABLE , var_5 , 33 ) ( SQUARE , -1 , 33 ) 
  ( VARIABLE , weight[5] , 35 ) ( MULTIPLY , -1 , 5 ) 
  ( VARIABLE , var_6 , 37 ) ( SQUARE , -1 , 37 ) 
  ( VARIABLE , weight[6] , 39 ) ( MULTIPLY , -1 , 4 ) 
  ( VARIABLE , var_7 , 41 ) ( SQUARE , -1 , 41 ) 
  ( VARIABLE , weight[7] , 43 ) ( MULTIPLY , -1 , 3 ) 
  ( VARIABLE , var_8 , 45 ) ( SQUARE , -1 , 45 ) 
  ( VARIABLE , weight[8] , 47 ) ( MULTIPLY , -1 , 2 ) 
  ( VARIABLE , var_9 , 49 ) ( SQUARE , -1 , 49 ) 
  ( VARIABLE , weight[9] , 51 ) ( MULTIPLY , -1 , 1 ) 
  ( VARIABLE , var_10 , 53 ) ( SQUARE , -1 , 53 ) 
  ( VARIABLE , weight[10] , 55 ) ( MULTIPLY , -1 , 0 ) 
  ( CONSTANT , 2 , 57 ) ( PLUS , -1 , 57 ) ( PLUS , -1 , 59 ) 
  ( PLUS , -1 , 60 ) ( PLUS , -1 , 61 ) ( PLUS , -1 , 62 ) 
  ( PLUS , -1 , 63 ) ( PLUS , -1 , 64 ) ( PLUS , -1 , 65 ) 
  ( PLUS , -1 , 66 ) ( PLUS , -1 , 67 ) ( PLUS , -1 , 68 ) 
  ( PLUS , -1 , 69 ) ( PLUS , -1 , 70 ) ( PLUS , -1 , 71 ) 
  ( PLUS , -1 , 72 ) ( PLUS , -1 , 73 ) ( PLUS , -1 , 74 ) 
  ( PLUS , -1 , 75 ) ( PLUS , -1 , 76 ) ( PLUS , -1 , 77 ) 
  ( PLUS , -1 , 78 ) ( PLUS , -1 , 79 ) ( PLUS , -1 , 80 ) 
  ( PLUS , -1 , 81 ) ( PLUS , -1 , 82 ) ( PLUS , -1 , 83 ) 
  ( PLUS , -1 , 84 ) ( PLUS , -1 , 85 ) ( PLUS , -1 , 86 ) 
  ( PLUS , -1 , 87 ) ( PLUS , -1 , 88 ) ( PLUS , -1 , 89 ) 
  ( PLUS , -1 , 90 ) ( PLUS , -1 , 91 ) ( PLUS , -1 , 92 ) 
  ( PLUS , -1 , 93 ) ( PLUS , -1 , 94 ) ( PLUS , -1 , 95 ) 
  ( PLUS , -1 , 96 ) ( PLUS , -1 , 97 ) ( PLUS , -1 , 98 ) 
  ( PLUS , -1 , 99 ) ( PLUS , -1 , 100 ) ( PLUS , -1 , 101 ) 
  ( PLUS , -1 , 102 ) ( PLUS , -1 , 103 ) ( PLUS , -1 , 104 ) 
  ( PLUS , -1 , 105 ) ( PLUS , -1 , 106 ) ( PLUS , -1 , 107 ) 
  ( PLUS , -1 , 108 ) ( PLUS , -1 , 109 ) ( PLUS , -1 , 110 ) 
  ( PLUS , -1 , 111 ) ( PLUS , -1 , 112 ) ( PLUS , -1 , 113 ) 
  ( MULTIPLY , -1 , 113 ) ( MULTIPLY , -1 , 115 ) 
  ( VARIABLE , weight[0] , 116 ) ( VARIABLE , covar_0_1 , 116 ) 
  ( VARIABLE , weight[1] , 115 ) ( MULTIPLY , -1 , 112 ) 
  ( MULTIPLY , -1 , 120 ) ( VARIABLE , weight[0] , 121 ) 
  ( VARIABLE , covar_0_2 , 121 ) ( VARIABLE , weight[2] , 120 ) 
  ( MULTIPLY , -1 , 111 ) ( MULTIPLY , -1 , 125 ) 
  ( VARIABLE , weight[0] , 126 ) ( VARIABLE , covar_0_3 , 126 ) 
  ( VARIABLE , weight[3] , 125 ) ( MULTIPLY , -1 , 110 ) 
  ( MULTIPLY , -1 , 130 ) ( VARIABLE , weight[0] , 131 ) 
  ( VARIABLE , covar_0_4 , 131 ) ( VARIABLE , weight[4] , 130 ) 
  ( MULTIPLY , -1 , 109 ) ( MULTIPLY , -1 , 135 ) 
  ( VARIABLE , weight[0] , 136 ) ( VARIABLE , covar_0_5 , 136 ) 
  ( VARIABLE , weight[5] , 135 ) ( MULTIPLY , -1 , 108 ) 
  ( MULTIPLY , -1 , 140 ) ( VARIABLE , weight[0] , 141 ) 
  ( VARIABLE , covar_0_6 , 141 ) ( VARIABLE , weight[6] , 140 ) 
  ( MULTIPLY , -1 , 107 ) ( MULTIPLY , -1 , 145 ) 
  ( VARIABLE , weight[0] , 146 ) ( VARIABLE , covar_0_7 , 146 ) 
  ( VARIABLE , weight[7] , 145 ) ( MULTIPLY , -1 , 106 ) 
  ( MULTIPLY , -1 , 150 ) ( VARIABLE , weight[0] , 151 ) 
  ( VARIABLE , covar_0_8 , 151 ) ( VARIABLE , weight[8] , 150 ) 
  ( MULTIPLY , -1 , 105 ) ( MULTIPLY , -1 , 155 ) 
  ( VARIABLE , weight[0] , 156 ) ( VARIABLE , covar_0_9 , 156 ) 
  ( VARIABLE , weight[9] , 155 ) ( MULTIPLY , -1 , 104 ) 
  ( MULTIPLY , -1 , 160 ) ( VARIABLE , weight[0] , 161 ) 
  ( VARIABLE , covar_0_10 , 161 ) ( VARIABLE , weight[10] , 160 ) 
  ( MULTIPLY , -1 , 103 ) ( MULTIPLY , -1 , 165 ) 
  ( VARIABLE , weight[1] , 166 ) ( VARIABLE , covar_1_2 , 166 ) 
  ( VARIABLE , weight[2] , 165 ) ( MULTIPLY , -1 , 102 ) 
  ( MULTIPLY , -1 , 170 ) ( VARIABLE , weight[1] , 171 ) 
  ( VARIABLE , covar_1_3 , 171 ) ( VARIABLE , weight[3] , 170 ) 
  ( MULTIPLY , -1 , 101 ) ( MULTIPLY , -1 , 175 ) 
  ( VARIABLE , weight[1] , 176 ) ( VARIABLE , covar_1_4 , 176 ) 
  ( VARIABLE , weight[4] , 175 ) ( MULTIPLY , -1 , 100 ) 
  ( MULTIPLY , -1 , 180 ) ( VARIABLE , weight[1] , 181 ) 
  ( VARIABLE , covar_1_5 , 181 ) ( VARIABLE , weight[5] , 180 ) 
  ( MULTIPLY , -1 , 99 ) ( MULTIPLY , -1 , 185 ) 
  ( VARIABLE , weight[1] , 186 ) ( VARIABLE , covar_1_6 , 186 ) 
  ( VARIABLE , weight[6] , 185 ) ( MULTIPLY , -1 , 98 ) 
  ( MULTIPLY , -1 , 190 ) ( VARIABLE , weight[1] , 191 ) 
  ( VARIABLE , covar_1_7 , 191 ) ( VARIABLE , weight[7] , 190 ) 
  ( MULTIPLY , -1 , 97 ) ( MULTIPLY , -1 , 195 ) 
  ( VARIABLE , weight[1] , 196 ) ( VARIABLE , covar_1_8 , 196 ) 
  ( VARIABLE , weight[8] , 195 ) ( MULTIPLY , -1 , 96 ) 
  ( MULTIPLY , -1 , 200 ) ( VARIABLE , weight[1] , 201 ) 
  ( VARIABLE , covar_1_9 , 201 ) ( VARIABLE , weight[9] , 200 ) 
  ( MULTIPLY , -1 , 95 ) ( MULTIPLY , -1 , 205 ) 
  ( VARIABLE , weight[1] , 206 ) ( VARIABLE , covar_1_10 , 206 ) 
  ( VARIABLE , weight[10] , 205 ) ( MULTIPLY , -1 , 94 ) 
  ( MULTIPLY , -1 , 210 ) ( VARIABLE , weight[2] , 211 ) 
  ( VARIABLE , covar_2_3 , 211 ) ( VARIABLE , weight[3] , 210 ) 
  ( MULTIPLY , -1 , 93 ) ( MULTIPLY , -1 , 215 ) 
  ( VARIABLE , weight[2] , 216 ) ( VARIABLE , covar_2_4 , 216 ) 
  ( VARIABLE , weight[4] , 215 ) ( MULTIPLY , -1 , 92 ) 
  ( MULTIPLY , -1 , 220 ) ( VARIABLE , weight[2] , 221 ) 
  ( VARIABLE , covar_2_5 , 221 ) ( VARIABLE , weight[5] , 220 ) 
  ( MULTIPLY , -1 , 91 ) ( MULTIPLY , -1 , 225 ) 
  ( VARIABLE , weight[2] , 226 ) ( VARIABLE , covar_2_6 , 226 ) 
  ( VARIABLE , weight[6] , 225 ) ( MULTIPLY , -1 , 90 ) 
  ( MULTIPLY , -1 , 230 ) ( VARIABLE , weight[2] , 231 ) 
  ( VARIABLE , covar_2_7 , 231 ) ( VARIABLE , weight[7] , 230 ) 
  ( MULTIPLY , -1 , 89 ) ( MULTIPLY , -1 , 235 ) 
  ( VARIABLE , weight[2] , 236 ) ( VARIABLE , covar_2_8 , 236 ) 
  ( VARIABLE , weight[8] , 235 ) ( MULTIPLY , -1 , 88 ) 
  ( MULTIPLY , -1 , 240 ) ( VARIABLE , weight[2] , 241 ) 
  ( VARIABLE , covar_2_9 , 241 ) ( VARIABLE , weight[9] , 240 ) 
  ( MULTIPLY , -1 , 87 ) ( MULTIPLY , -1 , 245 ) 
  ( VARIABLE , weight[2] , 246 ) ( VARIABLE , covar_2_10 , 246 ) 
  ( VARIABLE , weight[10] , 245 ) ( MULTIPLY , -1 , 86 ) 
  ( MULTIPLY , -1 , 250 ) ( VARIABLE , weight[3] , 251 ) 
  ( VARIABLE , covar_3_4 , 251 ) ( VARIABLE , weight[4] , 250 ) 
  ( MULTIPLY , -1 , 85 ) ( MULTIPLY , -1 , 255 ) 
  ( VARIABLE , weight[3] , 256 ) ( VARIABLE , covar_3_5 , 256 ) 
  ( VARIABLE , weight[5] , 255 ) ( MULTIPLY , -1 , 84 ) 
  ( MULTIPLY , -1 , 260 ) ( VARIABLE , weight[3] , 261 ) 
  ( VARIABLE , covar_3_6 , 261 ) ( VARIABLE , weight[6] , 260 ) 
  ( MULTIPLY , -1 , 83 ) ( MULTIPLY , -1 , 265 ) 
  ( VARIABLE , weight[3] , 266 ) ( VARIABLE , covar_3_7 , 266 ) 
  ( VARIABLE , weight[7] , 265 ) ( MULTIPLY , -1 , 82 ) 
  ( MULTIPLY , -1 , 270 ) ( VARIABLE , weight[3] , 271 ) 
  ( VARIABLE , covar_3_8 , 271 ) ( VARIABLE , weight[8] , 270 ) 
  ( MULTIPLY , -1 , 81 ) ( MULTIPLY , -1 , 275 ) 
  ( VARIABLE , weight[3] , 276 ) ( VARIABLE , covar_3_9 , 276 ) 
  ( VARIABLE , weight[9] , 275 ) ( MULTIPLY , -1 , 80 ) 
  ( MULTIPLY , -1 , 280 ) ( VARIABLE , weight[3] , 281 ) 
  ( VARIABLE , covar_3_10 , 281 ) ( VARIABLE , weight[10] , 280 ) 
  ( MULTIPLY , -1 , 79 ) ( MULTIPLY , -1 , 285 ) 
  ( VARIABLE , weight[4] , 286 ) ( VARIABLE , covar_4_5 , 286 ) 
  ( VARIABLE , weight[5] , 285 ) ( MULTIPLY , -1 , 78 ) 
  ( MULTIPLY , -1 , 290 ) ( VARIABLE , weight[4] , 291 ) 
  ( VARIABLE , covar_4_6 , 291 ) ( VARIABLE , weight[6] , 290 ) 
  ( MULTIPLY , -1 , 77 ) ( MULTIPLY , -1 , 295 ) 
  ( VARIABLE , weight[4] , 296 ) ( VARIABLE , covar_4_7 , 296 ) 
  ( VARIABLE , weight[7] , 295 ) ( MULTIPLY , -1 , 76 ) 
  ( MULTIPLY , -1 , 300 ) ( VARIABLE , weight[4] , 301 ) 
  ( VARIABLE , covar_4_8 , 301 ) ( VARIABLE , weight[8] , 300 ) 
  ( MULTIPLY , -1 , 75 ) ( MULTIPLY , -1 , 305 ) 
  ( VARIABLE , weight[4] , 306 ) ( VARIABLE , covar_4_9 , 306 ) 
  ( VARIABLE , weight[9] , 305 ) ( MULTIPLY , -1 , 74 ) 
  ( MULTIPLY , -1 , 310 ) ( VARIABLE , weight[4] , 311 ) 
  ( VARIABLE , covar_4_10 , 311 ) ( VARIABLE , weight[10] , 310 ) 
  ( MULTIPLY , -1 , 73 ) ( MULTIPLY , -1 , 315 ) 
  ( VARIABLE , weight[5] , 316 ) ( VARIABLE , covar_5_6 , 316 ) 
  ( VARIABLE , weight[6] , 315 ) ( MULTIPLY , -1 , 72 ) 
  ( MULTIPLY , -1 , 320 ) ( VARIABLE , weight[5] , 321 ) 
  ( VARIABLE , covar_5_7 , 321 ) ( VARIABLE , weight[7] , 320 ) 
  ( MULTIPLY , -1 , 71 ) ( MULTIPLY , -1 , 325 ) 
  ( VARIABLE , weight[5] , 326 ) ( VARIABLE , covar_5_8 , 326 ) 
  ( VARIABLE , weight[8] , 325 ) ( MULTIPLY , -1 , 70 ) 
  ( MULTIPLY , -1 , 330 ) ( VARIABLE , weight[5] , 331 ) 
  ( VARIABLE , covar_5_9 , 331 ) ( VARIABLE , weight[9] , 330 ) 
  ( MULTIPLY , -1 , 69 ) ( MULTIPLY , -1 , 335 ) 
  ( VARIABLE , weight[5] , 336 ) ( VARIABLE , covar_5_10 , 336 ) 
  ( VARIABLE , weight[10] , 335 ) ( MULTIPLY , -1 , 68 ) 
  ( MULTIPLY , -1 , 340 ) ( VARIABLE , weight[6] , 341 ) 
  ( VARIABLE , covar_6_7 , 341 ) ( VARIABLE , weight[7] , 340 ) 
  ( MULTIPLY , -1 , 67 ) ( MULTIPLY , -1 , 345 ) 
  ( VARIABLE , weight[6] , 346 ) ( VARIABLE , covar_6_8 , 346 ) 
  ( VARIABLE , weight[8] , 345 ) ( MULTIPLY , -1 , 66 ) 
  ( MULTIPLY , -1 , 350 ) ( VARIABLE , weight[6] , 351 ) 
  ( VARIABLE , covar_6_9 , 351 ) ( VARIABLE , weight[9] , 350 ) 
  ( MULTIPLY , -1 , 65 ) ( MULTIPLY , -1 , 355 ) 
  ( VARIABLE , weight[6] , 356 ) ( VARIABLE , covar_6_10 , 356 ) 
  ( VARIABLE , weight[10] , 355 ) ( MULTIPLY , -1 , 64 ) 
  ( MULTIPLY , -1 , 360 ) ( VARIABLE , weight[7] , 361 ) 
  ( VARIABLE , covar_7_8 , 361 ) ( VARIABLE , weight[8] , 360 ) 
  ( MULTIPLY , -1 , 63 ) ( MULTIPLY , -1 , 365 ) 
  ( VARIABLE , weight[7] , 366 ) ( VARIABLE , covar_7_9 , 366 ) 
  ( VARIABLE , weight[9] , 365 ) ( MULTIPLY , -1 , 62 ) 
  ( MULTIPLY , -1 , 370 ) ( VARIABLE , weight[7] , 371 ) 
  ( VARIABLE , covar_7_10 , 371 ) ( VARIABLE , weight[10] , 370 ) 
  ( MULTIPLY , -1 , 61 ) ( MULTIPLY , -1 , 375 ) 
  ( VARIABLE , weight[8] , 376 ) ( VARIABLE , covar_8_9 , 376 ) 
  ( VARIABLE , weight[9] , 375 ) ( MULTIPLY , -1 , 60 ) 
  ( MULTIPLY , -1 , 380 ) ( VARIABLE , weight[8] , 381 ) 
  ( VARIABLE , covar_8_10 , 381 ) ( VARIABLE , weight[10] , 380 ) 
  ( MULTIPLY , -1 , 59 ) ( MULTIPLY , -1 , 385 ) 
  ( VARIABLE , weight[9] , 386 ) ( VARIABLE , covar_9_10 , 386 ) 
  ( VARIABLE , weight[10] , 385 )
End
